 vasp.5.4.4.18Apr17-6-g9f103f2a35 (build Oct 20 2021 08:33:53) complex
 executed on             LinuxGNU date 2024.04.17  10:44:47

 INCAR:
 POTCAR:    PAW_PBE C 08Apr2002
 POTCAR:    PAW_PBE H 15Jun2001
 POTCAR:    PAW_PBE O 08Apr2002
 POTCAR:    PAW_PBE Si 05Jan2001
 POTCAR:    PAW_PBE W 08Apr2002
 POTCAR:    PAW_PBE C 08Apr2002
   VRHFIN =C: s2p2

   TITEL  = PAW_PBE C 08Apr2002
   POMASS =   12.011; ZVAL   =    4.000    mass and valenz
   ENMAX  =  400.000; ENMIN  =  300.000 eV

 POTCAR:    PAW_PBE H 15Jun2001
   VRHFIN =H: ultrasoft test

   TITEL  = PAW_PBE H 15Jun2001
   POMASS =    1.000; ZVAL   =    1.000    mass and valenz
   ENMAX  =  250.000; ENMIN  =  200.000 eV

 POTCAR:    PAW_PBE O 08Apr2002
   VRHFIN =O: s2p4

[...]

 POTCAR:    PAW_PBE Si 05Jan2001
   VRHFIN =Si: s2p2

   TITEL  = PAW_PBE Si 05Jan2001
   POMASS =   28.085; ZVAL   =    4.000    mass and valenz
   ENMAX  =  245.345; ENMIN  =  184.009 eV

 POTCAR:    PAW_PBE W 08Apr2002
   VRHFIN =W : 6s5d

   TITEL  = PAW_PBE W 08Apr2002
   POMASS =  183.850; ZVAL   =    6.000    mass and valenz
   ENMAX  =  223.057; ENMIN  =  167.293 eV

 Optimization of the real space projectors (new method)

 maximal supplied QI-value         = 25.13
 optimisation between [QCUT,QGAM] = [ 11.31, 22.87] = [ 35.82,146.48] Ry
 Optimized for a Real-space Cutoff    1.00 Angstroem

   l    n(q)    QCUT    max X(q) W(low)/X(q) W(high)/X(q)  e(spline)
   0      7    11.310   115.676    0.43E-03    0.13E-02    0.19E-06
   0      7    11.310    87.132    0.43E-03    0.13E-02    0.18E-06
   1      6    11.310     4.429    0.42E-03    0.74E-03    0.11E-06
   1      6    11.310     2.733    0.34E-03    0.55E-03    0.92E-07
 Optimization of the real space projectors (new method)

[...]

   l    n(q)    QCUT    max X(q) W(low)/X(q) W(high)/X(q)  e(spline)
   0      8    11.310   159.560    0.27E-03    0.30E-03    0.39E-07
   0      8    11.310   115.863    0.27E-03    0.30E-03    0.38E-07
   1      7    11.310    88.339    0.28E-03    0.28E-03    0.77E-07
   1      7    11.310    48.592    0.27E-03    0.27E-03    0.74E-07
 Optimization of the real space projectors (new method)

 maximal supplied QI-value         = 13.61
 optimisation between [QCUT,QGAM] = [ 11.43, 22.86] = [ 36.58,146.31] Ry
 Optimized for a Real-space Cutoff    1.56 Angstroem

   l    n(q)    QCUT    max X(q) W(low)/X(q) W(high)/X(q)  e(spline)
   2     10    11.429   130.855    0.22E-03    0.64E-03    0.11E-05
   2     10    11.429   114.007    0.22E-03    0.64E-03    0.11E-05
   0     11    11.429    84.709    0.39E-04    0.67E-04    0.23E-06
   0     11    11.429    49.163    0.35E-04    0.62E-04    0.21E-06
   1     10    11.429    15.765    0.84E-04    0.15E-03    0.24E-06
   1     10    11.429    10.638    0.58E-04    0.12E-03    0.19E-06

  PAW_PBE C 08Apr2002                   :
  PAW_PBE H 15Jun2001                   :
  PAW_PBE O 08Apr2002                   :
  PAW_PBE Si 05Jan2001                  :
  PAW_PBE W 08Apr2002                   :

 POSCAR:  C  H  O Si  W
  positions in direct lattice
  velocities in cartesian coordinates
 exchange correlation table for  LEXCH =        9
   RHO(1)=    0.500       N(1)  =     2000
   RHO(2)=  100.500       N(2)  =     4000

 VTST: version 3.2, (02/03/18)

 CHAIN: initializing optimizer

 OPT: Using FIRE optimizer
 OPT: FIRE, Init
 OPT: FIRE, MAXMOVE       0.20000
 OPT: FIRE, TIMESTEP      0.10000
 OPT: FIRE, FTIMEMAX      1.00000
 OPT: FIRE, FTIMEINC      1.10000
 OPT: FIRE, FTIMEDEC      0.50000
 OPT: FIRE, FALPHADEC     0.99000
 OPT: FIRE, FALPHA        0.10000
 OPT: FIRE, FNMIN         5

 CHAIN: Read ICHAIN            0
 CHAIN: Running the NEB
 NEB:          SPRING     -5.000000
 NEB:          LCLIMB      T
 NEB:     LTANGENTOLD      F
 NEB:           LDNEB      F
 NEB:        LDNEBORG      F
 NEB:        LNEBCELL      F
 NEB:          EFIRST      0.000000
 NEB:           ELAST      0.000000

 POSCAR:  C  H  O Si  W
  positions in cartesian coordinates

 POSCAR:  C  H  O Si  W
  positions in cartesian coordinates

 ion  position               nearest neighbor table
   1  0.521  0.540  0.754-  49 1.10   3 1.51 277 1.95
   2  0.551  0.389  0.748-  50 1.10 210 1.27   4 1.49
   3  0.576  0.584  0.751-  52 1.10  51 1.10  53 1.11   1 1.51
   4  0.543  0.325  0.782-  55 1.10  54 1.10  56 1.11   2 1.49
   5  0.763  0.102  0.652- 131 0.97
   6  0.926  0.279  0.356-  79 0.98
   7  0.793  0.207  0.373- 114 0.97
   8  0.975  0.944  0.325- 123 0.97
   9  0.626  0.963  0.375- 125 0.98
  10  0.821  0.995  0.369- 143 0.97
  11  0.750  0.141  0.458- 181 0.98
  12  0.915  0.249  0.509- 186 0.97
  13  0.583  0.304  0.306- 191 0.97
  14  0.892  0.335  0.616-  97 0.98
  15  0.585  0.356  0.616- 142 0.97
  16  0.593  0.871  0.578- 184 0.99
  17  0.034  0.337  0.653- 190 0.97
  18  0.935  0.420  0.454- 179 0.98
  19  0.746  0.530  0.422-  93 1.00
  20  0.799  0.383  0.635- 171 0.97
  21  0.591  0.569  0.378- 105 0.99
  22  0.718  0.646  0.383- 128 0.99
  23  0.841  0.542  0.420- 134 0.98
  24  0.005  0.604  0.358- 139 0.97
  25  0.828  0.712  0.468- 180 0.99
  26  0.879  0.599  0.720-  59 0.97
  27  0.520  0.986  0.422- 141 0.99
  28  0.223  0.980  0.393- 182 1.00
  29  0.216  0.238  0.319- 197 0.99
  30  0.158  0.330  0.279- 188 0.97
  31  0.342  0.156  0.331- 189 0.98
  32  0.223  0.046  0.323- 196 0.97
  33  0.511  0.825  0.547- 199 0.97
  34  0.371  0.237  0.647-  84 0.97
  35  0.244  0.093  0.599- 135 0.98
  36  0.315  0.487  0.442-  58 0.99
  37  0.409  0.439  0.406- 147 0.98
  38  0.398  0.793  0.389- 185 0.97
  39  0.244  0.655  0.294- 193 0.97
  40  0.312  0.418  0.369- 194 0.98
  41  0.405  0.584  0.339- 195 0.97
  42  0.139  0.488  0.352- 187 0.98
  43  0.593  0.698  0.352-  88 0.97
  44  0.469  0.861  0.444- 198 0.99
  45  0.124  0.324  0.614- 107 0.97
  46  0.075  0.663  0.647- 138 0.97
  47  0.246  0.390  0.682- 183 0.97
  48  0.246  0.814  0.670- 192 0.97
  49  0.500  0.540  0.790-   1 1.10
  50  0.583  0.430  0.757-   2 1.10
  51  0.603  0.576  0.784-   3 1.10
  52  0.602  0.571  0.718-   3 1.10
  53  0.565  0.643  0.749-   3 1.11
  54  0.548  0.343  0.821-   4 1.10
  55  0.502  0.297  0.776-   4 1.10
  56  0.578  0.286  0.775-   4 1.11
  57  0.369  0.648  0.439- 231 1.66 266 1.68
  58  0.347  0.504  0.420-  36 0.99 266 1.67
  59  0.860  0.566  0.697-  26 0.97 237 1.64
  60  0.348  0.959  0.531- 242 1.68 275 1.70
[...]
 219  0.214  0.476  0.510- 178 1.61 177 1.63 137 1.66 174 1.66 230 3.10 263 3.14
 220  0.915  0.756  0.496- 102 1.65 180 1.65  86 1.65  91 1.66 233 2.99 241 3.03
 221  0.521  0.110  0.426- 113 1.64  64 1.65 141 1.66 121 1.67 252 3.08 235 3.12
 222  0.418  0.170  0.589-  84 1.64 201 1.65 101 1.68 161 1.69 275 3.13 262 3.14
 223  0.083  0.139  0.407-  63 1.64 144 1.65  89 1.65 157 1.66 216 3.11 215 3.13 269 3.14
 224  0.702  0.045  0.487-  96 1.64 165 1.65  62 1.65 181 1.66 235 3.09 225 3.10 259 3.15
 225  0.665  0.898  0.437-  95 1.53 165 1.66 125 1.66 156 1.67 271 2.83 258 3.06 224 3.10
 226  0.650  0.504  0.430- 105 1.65 163 1.65  93 1.67  99 1.68 234 3.08
 227  0.198  0.912  0.464- 136 1.50 182 1.64 159 1.66 115 1.67 245 3.01 242 3.06 268 3.07
 228  0.216  0.367  0.604-  83 1.63 178 1.63 107 1.64 183 1.64
 229  0.673  0.813  0.595- 184 1.62 116 1.64  98 1.68 206 1.71 256 2.91
 230  0.217  0.642  0.539- 169 1.63 176 1.63 202 1.65 137 1.65 245 3.09 219 3.10 274 3.12
 231  0.369  0.735  0.459- 104 1.65  73 1.65  57 1.66 185 1.68
 232  0.797  0.888  0.596- 140 1.66  98 1.66 109 1.67 205 1.68 241 2.86 233 3.00
 233  0.880  0.912  0.512-  72 1.60  91 1.62 109 1.65 117 1.66 220 2.99 232 3.00 257 3.05 248 3.14

 234  0.576  0.574  0.512-  99 1.58 166 1.63 100 1.63 133 1.64 244 3.01 226 3.08 218 3.14 276 3.14

[...]

 273  0.287  0.210  0.459- 173 1.63 122 1.63  67 1.66 152 1.67 251 3.03 269 3.12
 274  0.088  0.625  0.568- 162 1.63 138 1.63 108 1.64 169 1.65 270 3.09 230 3.12 250 3.15
 275  0.353  0.020  0.578- 161 1.64  69 1.66  60 1.70 208 1.70 242 2.38 261 2.74 222 3.13
 276  0.486  0.483  0.572-  77 1.64 133 1.64  85 1.68 127 1.69 253 2.89 234 3.14
 277  0.481  0.495  0.699- 211 1.72   1 1.95 124 1.99  77 2.03 210 2.17 253 3.18

  LATTYP: Found a simple orthorhombic cell.
 ALAT       =    18.1212369514
 B/A-ratio  =     1.2919258579
 C/A-ratio  =     1.4835282260

  Lattice vectors:

 A1 = (   0.0000000000, -18.1212369514,   0.0000000000)
 A2 = ( -23.4112945954,   0.0000000000,   0.0000000000)
 A3 = (   0.0000000000,   0.0000000000, -26.8833665073)

Analysis of symmetry for initial positions (statically):
 Subroutine PRICEL returns:
 Original cell was already a primitive cell.

 Routine SETGRP: Setting up the symmetry group for a
 simple orthorhombic supercell.

 Subroutine GETGRP returns: Found  1 space group operations
 (whereof  1 operations were pure point group operations)
 out of a pool of  8 trial point group operations.

The static configuration has the point symmetry C_1 .

Analysis of symmetry for dynamics (positions and initial velocities):
 Subroutine PRICEL returns:
 Original cell was already a primitive cell.

[...]

The dynamic configuration has the point symmetry C_1 .

Analysis of constrained symmetry for selective dynamics:
 Subroutine PRICEL returns:
 Original cell was already a primitive cell.

 Routine SETGRP: Setting up the symmetry group for a
 simple orthorhombic supercell.

 Subroutine GETGRP returns: Found  1 space group operations
 (whereof  1 operations were pure point group operations)
 out of a pool of  8 trial point group operations.

The constrained configuration has the point symmetry C_1 .

 Subroutine INISYM returns: Found  1 space group operations
 (whereof  1 operations are pure point group operations),
 and found     1 'primitive' translations

 KPOINTS: KPOINTS created by Atomic Simulation Env

Automatic generation of k-mesh.
Space group operators:
 irot       det(A)        alpha          n_x          n_y          n_z        tau_x        tau_y        tau_z
    1     1.000000     0.000000     1.000000     0.000000     0.000000     0.000000     0.000000     0.000000

 Subroutine IBZKPT returns following result:

 Found      5 irreducible k-points:

 Following reciprocal coordinates:
            Coordinates               Weight
  0.000000  0.000000  0.000000      1.000000
  0.333333  0.000000  0.000000      2.000000
  0.000000  0.333333  0.000000      2.000000
  0.333333  0.333333  0.000000      2.000000
 -0.333333  0.333333  0.000000      2.000000

 Following cartesian coordinates:
            Coordinates               Weight
  0.000000  0.000000  0.000000      1.000000
  0.014238  0.000000  0.000000      2.000000
  0.000000  0.018395  0.000000      2.000000
  0.014238  0.018395  0.000000      2.000000
 -0.014238  0.018395  0.000000      2.000000

 SYSTEM =  unknown system
 POSCAR =   C  H  O Si  W

 Startparameter for this run:
   NWRITE =      2    write-flag & timer
   PREC   = normal    normal or accurate (medium, high low for compatibility)
   ISTART =      0    job   : 0-new  1-cont  2-samecut
   ICHARG =      2    charge: 1-file 2-atom 10-const
   ISPIN  =      1    spin polarized calculation?
   LNONCOLLINEAR =      F non collinear calculations
[...]
   -.152E+02 -.346E+02 0.129E+03   0.155E+02 0.410E+02 -.132E+03   -.264E+00 -.677E+01 0.317E+01   0.430E-04 -.505E-04 -.133E-03
   0.194E+02 -.452E+02 0.180E+03   -.237E+02 0.510E+02 -.182E+03   0.441E+01 -.594E+01 0.227E+01   0.422E-05 -.688E-04 -.956E-04
   -.167E+01 -.366E+02 0.238E+03   0.219E+01 0.403E+02 -.245E+03   -.515E+00 -.386E+01 0.733E+01   -.977E-05 -.782E-04 -.861E-04
   0.444E+02 -.135E+02 0.192E+03   -.505E+02 0.169E+02 -.196E+03   0.618E+01 -.353E+01 0.404E+01   -.234E-04 -.445E-04 -.156E-03
   -.129E+01 0.499E+02 0.229E+03   0.649E+00 -.517E+02 -.237E+03   0.645E+00 0.182E+01 0.808E+01   0.145E-04 -.668E-04 -.222E-03
   0.673E+02 0.723E+01 -.668E+02   -.750E+02 -.766E+01 0.699E+02   0.771E+01 0.440E+00 -.304E+01   -.153E-03 0.377E-04 0.125E-03
   0.666E+02 -.688E+02 -.146E+03   -.719E+02 0.753E+02 0.147E+03   0.537E+01 -.643E+01 -.715E+00   -.381E-04 0.272E-04 -.223E-03
   0.170E+02 0.768E+02 -.105E+03   -.155E+02 -.847E+02 0.104E+03   -.153E+01 0.791E+01 0.123E+01   0.481E-04 -.267E-04 0.366E-04
   0.181E+02 0.170E+02 -.392E+01   -.235E+02 -.195E+02 0.837E+01   0.559E+01 0.252E+01 -.460E+01   -.347E-05 -.151E-04 0.150E-03
   0.286E+02 -.518E+02 0.543E+02   -.337E+02 0.561E+02 -.504E+02   0.525E+01 -.445E+01 -.403E+01   -.693E-04 0.854E-05 0.727E-04
   0.149E+02 -.265E+02 0.209E+03   -.170E+02 0.273E+02 -.216E+03   0.214E+01 -.794E+00 0.796E+01   -.106E-04 0.458E-04 -.984E-04
   -.762E+02 -.273E+02 0.198E+03   0.833E+02 0.284E+02 -.202E+03   -.724E+01 -.106E+01 0.394E+01   0.169E-03 0.122E-03 -.105E-03
   -.826E+02 -.367E+02 0.135E+03   0.896E+02 0.406E+02 -.135E+03   -.716E+01 -.403E+01 -.166E+00   0.563E-04 0.986E-05 0.102E-04
   -.102E+03 0.109E+02 0.155E+03   0.109E+03 -.129E+02 -.156E+03   -.795E+01 0.202E+01 0.104E+01   0.357E-04 0.732E-04 -.109E-03
   0.766E+00 -.695E+02 0.100E+03   0.533E+00 0.762E+02 -.963E+02   -.133E+01 -.693E+01 -.421E+01   -.581E-04 0.253E-04 0.669E-04
   -.327E+02 -.496E+02 0.219E+03   0.366E+02 0.540E+02 -.224E+03   -.406E+01 -.454E+01 0.558E+01   -.305E-04 0.145E-03 -.284E-03
   0.759E+02 0.224E+02 0.110E+03   -.818E+02 -.264E+02 -.112E+03   0.621E+01 0.437E+01 0.245E+01   -.107E-03 0.153E-04 -.356E-04
   0.526E+02 0.517E+02 -.110E+03   -.579E+02 -.579E+02 0.108E+03   0.531E+01 0.621E+01 0.177E+01   -.148E-04 0.429E-04 -.272E-04
   -.199E+02 -.660E+02 -.197E+03   0.226E+02 0.718E+02 0.202E+03   -.270E+01 -.573E+01 -.554E+01   0.351E-04 0.842E-04 0.299E-04
   0.201E+02 0.128E+02 -.226E+03   -.218E+02 -.146E+02 0.234E+03   0.173E+01 0.189E+01 -.802E+01   -.827E-04 -.267E-04 -.257E-03
   0.253E+02 -.746E+02 -.198E+03   -.252E+02 0.814E+02 0.203E+03   -.130E+00 -.681E+01 -.488E+01   -.465E-04 0.819E-04 -.124E-04
   0.319E+02 -.121E+02 -.184E+03   -.345E+02 0.121E+02 0.189E+03   0.258E+01 0.253E-01 -.493E+01   0.812E-04 0.572E-04 -.139E-03
   -.684E+02 -.154E+02 -.147E+03   0.724E+02 0.194E+02 0.149E+03   -.399E+01 -.408E+01 -.131E+01   0.866E-04 0.106E-03 -.223E-03
   -.489E+02 -.599E+01 -.173E+03   0.520E+02 0.541E+01 0.178E+03   -.311E+01 0.578E+00 -.443E+01   0.850E-04 0.442E-04 -.130E-03
   -.509E+02 0.639E+01 -.111E+03   0.540E+02 -.746E+01 0.107E+03   -.312E+01 0.107E+01 0.451E+01   0.105E-05 0.778E-05 -.269E-03
   0.130E+01 -.740E+02 -.144E+03   -.250E+01 0.792E+02 0.143E+03   0.125E+01 -.522E+01 0.341E+00   0.331E-04 0.133E-03 -.243E-03
   -.966E+01 0.554E+01 -.166E+03   0.101E+02 -.399E+01 0.171E+03   -.487E+00 -.157E+01 -.533E+01   0.989E-04 -.692E-04 0.711E-04
   0.499E+02 0.555E+02 -.121E+03   -.548E+02 -.582E+02 0.120E+03   0.495E+01 0.270E+01 0.875E+00   0.572E-05 -.150E-03 -.198E-03
   -.526E+02 0.617E+02 -.114E+03   0.565E+02 -.652E+02 0.113E+03   -.396E+01 0.352E+01 0.899E+00   0.967E-04 -.164E-03 -.145E-03
   -.153E+03 0.461E+02 0.341E+03   0.167E+03 -.575E+02 -.332E+03   -.142E+02 0.115E+02 -.972E+01   -.120E-04 0.362E-03 0.275E-03
   -.174E+03 0.413E+02 0.389E+03   0.202E+03 -.569E+02 -.398E+03   -.279E+02 0.162E+02 0.940E+01   -.427E-05 0.435E-04 0.422E-03
   -.186E+03 0.143E+03 -.948E+03   0.180E+03 -.182E+03 0.950E+03   0.511E+01 0.388E+02 -.190E+01   0.218E-03 0.372E-03 -.127E-02
   -.289E+02 0.277E+02 0.884E+02   0.517E+02 -.373E+02 -.118E+03   -.228E+02 0.960E+01 0.296E+02   0.448E-03 -.222E-03 0.304E-03
[...]
   -.532E+02 -.127E+02 0.217E+03   0.526E+02 0.116E+02 -.218E+03   0.456E+00 0.717E+00 0.873E+00   0.315E-03 -.365E-03 0.251E-03
   0.718E+02 -.376E+02 -.141E+03   -.664E+02 0.363E+02 0.138E+03   -.549E+01 0.134E+01 0.298E+01   -.375E-03 -.235E-04 0.565E-03
   -.859E+02 -.234E+02 0.380E+03   0.860E+02 0.214E+02 -.382E+03   -.173E+00 0.199E+01 0.165E+01   0.111E-03 0.192E-03 0.678E-04
   -.623E+02 0.961E+02 -.265E+03   0.621E+02 -.963E+02 0.267E+03   0.254E+00 0.183E+00 -.178E+01   0.491E-03 -.173E-03 0.554E-05
   -.950E+01 0.155E+01 0.298E+02   0.102E+02 -.472E+01 -.320E+02   -.988E+00 0.960E+01 0.176E+01   -.173E-03 -.250E-03 0.549E-04
   -.269E+02 0.856E+02 0.456E+03   0.269E+02 -.839E+02 -.458E+03   -.483E-01 -.174E+01 0.149E+01   0.449E-05 -.833E-04 -.510E-03
   0.948E+02 -.453E+01 -.270E+02   -.935E+02 0.679E+01 0.275E+02   -.133E+01 -.241E+01 -.721E+00   -.340E-03 -.150E-03 0.401E-03
   0.113E+03 0.171E+02 0.149E+03   -.108E+03 -.994E+01 -.153E+03   -.282E+02 -.231E+02 0.850E+01   -.370E-03 0.236E-03 0.376E-04
   -.218E+02 0.964E+02 -.407E+03   0.235E+02 -.948E+02 0.406E+03   -.162E+01 -.167E+01 0.449E+00   0.278E-03 -.140E-03 0.146E-03
   -.276E+02 0.314E+02 0.130E+03   0.276E+02 -.323E+02 -.130E+03   -.204E+00 0.851E+00 -.116E+01   0.191E-03 0.146E-03 0.482E-03
   0.592E+02 -.179E+02 -.366E+03   -.596E+02 0.187E+02 0.367E+03   0.399E+00 -.742E+00 -.100E+01   -.108E-03 -.146E-03 0.211E-03
   0.593E+02 -.558E+02 -.309E+03   -.602E+02 0.511E+02 0.310E+03   0.869E+00 0.468E+01 -.134E+00   0.138E-03 0.304E-04 0.126E-03
   0.101E+03 0.708E+02 -.178E+03   -.965E+02 -.666E+02 0.183E+03   -.430E+01 -.418E+01 -.407E+01   -.443E-03 -.208E-03 0.449E-03
   0.821E+02 0.291E+02 -.764E+03   -.834E+02 -.265E+02 0.766E+03   0.129E+01 -.262E+01 -.159E+01   0.148E-02 0.582E-03 -.279E-02
   0.299E+03 -.216E+03 -.136E+03   0.412E-12 0.671E-12 -.432E-11   -.299E+03 0.216E+03 0.137E+03   -.116E-02 0.844E-02 0.336E-02

 POSITION                                       TOTAL-FORCE (eV/Angst)
     12.20322      9.79045     20.26805         0.012583     -0.006076     -0.002270
     12.89958      7.04162     20.09554        -0.004102      0.003559     -0.004930
     13.49120     10.57477     20.19106         0.009045     -0.012635     -0.002703
     12.71545      5.89385     21.02808        -0.007584     -0.000916     -0.006064
     17.86293      1.84443     17.52526         0.002893      0.002387     -0.008613
     21.68887      5.04983      9.57948         0.103663      0.074584     -0.014496
     18.57311      3.75615     10.03977         0.037741      0.114379      0.058566
     22.81522     17.09936      8.74523         0.111291      0.058633      0.046092
     14.64921     17.45932     10.08748         0.053849     -0.006733     -0.045699
     19.20987     18.03075      9.91976         0.122351      0.024351      0.011740
     17.55831      2.55833     12.31361        -0.112580     -0.224185     -0.128419
     21.43169      4.52047     13.69077        -0.000770     -0.000048      0.000839
     13.66032      5.51363      8.22435        -0.104034     -0.135130      0.074637
     20.87743      6.07371     16.54940        -0.008132      0.005678     -0.003331
     13.68576      6.45121     16.56787        -0.001833     -0.001463      0.000829
     13.88758     15.78964     15.54470         0.001768     -0.001101      0.001408
      0.78638      6.11389     17.54522        -0.001827      0.000368      0.001394
     21.89589      7.60212     12.20778        -0.088997      0.130915      0.075640
     17.46807      9.60991     11.35790        -0.331771      0.165335     -0.032248
     18.70084      6.93648     17.06682        -0.001909      0.000819     -0.000119
     13.83846     10.30524     10.16285         0.097425     -0.187670      0.081691
     16.81947     11.70510     10.30871        -0.033202      0.236533     -0.005142
     19.69248      9.82944     11.28016        -0.109968     -0.102455      0.020467
      0.11154     10.94157      9.61829         0.115509     -0.008697     -0.018023
     19.39295     12.90878     12.57986         0.220402     -0.038732     -0.044668
     20.57744     10.84746     19.36294         0.003336     -0.000556      0.003548
     12.17365     17.85965     11.33680         0.010895      0.118224     -0.087947
      5.22293     17.76162     10.57067        -0.010728     -0.373674      0.139000
      5.06559      4.31016      8.58199         0.179556     -0.200794      0.088674
      3.68730      5.97650      7.50000         0.011161     -0.110196      0.331978
      7.99605      2.81941      8.89229         0.086780     -0.089622      0.081840
      5.21407      0.82921      8.67630         0.003129      0.019648      0.164111
     11.96643     14.95639     14.69652         0.003229     -0.000977     -0.000784
      8.69258      4.29299     17.38236        -0.006860      0.008119     -0.001060
      5.70540      1.68859     16.09199        -0.003232      0.007596     -0.000178
      7.38348      8.82752     11.89413         0.235525      0.097065     -0.162785
      9.57419      7.95042     10.90633         0.124450     -0.108437     -0.107835
      9.32939     14.37220     10.45190         0.058387     -0.002012      0.136972
      5.71709     11.87720      7.91250        -0.124912     -0.021523      0.100173
      7.29827      7.58330      9.92689        -0.162813     -0.087737      0.002766
      9.49268     10.58787      9.10862        -0.113532      0.039130      0.013862
      3.26254      8.84269      9.46105        -0.023234     -0.202685     -0.110370
     13.88920     12.64839      9.47364        -0.126480     -0.096820      0.181174
     10.98006     15.61013     11.93160         0.311822      0.328629      0.169248
      2.89362      5.87290     16.50576        -0.000812     -0.002744      0.000132
      1.76129     12.00664     17.38119        -0.001277     -0.003989     -0.001210
      5.76378      7.06614     18.33739         0.000583     -0.000860      0.000047
      5.76257     14.75719     18.01714        -0.002742     -0.015873     -0.005611
     11.71158      9.78806     21.25014         0.005374     -0.009120     -0.001312
     13.65936      7.80029     20.34421         0.009891     -0.005133     -0.010303
     14.11750     10.44606     21.08983         0.013018     -0.021640     -0.005495
     14.09378     10.34455     19.30016         0.007975     -0.012259      0.000115
     13.23308     11.64967     20.12715         0.023911     -0.012020      0.006789
     12.81928      6.21936     22.07381        -0.016122      0.003630     -0.003122
     11.76221      5.37869     20.85694        -0.005058      0.002704     -0.014385
     13.54326      5.18312     20.83334        -0.006253      0.001046      0.005203
      8.63740     11.74900     11.80180        -0.255463      0.084844     -0.273289
      8.11940      9.13372     11.30145        -0.100353      0.608315     -0.009168
     20.14359     10.25976     18.72680        -0.008703     -0.009537     -0.009222
      8.15597     17.37736     14.26212         0.000666      0.010976      0.001822
[...]
      5.71814      6.71222     11.31648         0.040578     -0.102343     -0.032294
     15.41693      5.98005     12.10687        -0.181641     -0.422369     -0.753628
     10.77543      5.78529     14.22385        -0.010541     -0.010093     -0.002124
      7.89661     10.69049     10.72869        -0.091917     -0.053035      0.057681
     18.79325      8.63918     15.58202         0.003264     -0.006662     -0.004823
      1.62029     16.28844     12.91761        -0.299330      6.430891     -0.518324
      4.96103      2.61769     10.04353        -0.066239     -0.030790      0.138976
      1.83153      8.95162     13.29887         0.051755     -0.149915     -0.297972
     13.05344     15.44546     12.76235       -22.344440    -15.876115      4.761372
     16.80614     10.59602     16.39011        -0.007990     -0.004586     -0.005990
      6.71066      3.80730     12.34244        -0.202658      0.018062     -0.726177
      2.06388     11.33240     15.25961         0.007954      0.000010      0.001732
      8.26476      0.36641     15.53862        -0.003132      0.000127     -0.009929
     11.36818      8.76140     15.38813         0.005316     -0.000366     -0.006258
     11.25125      8.96540     18.78059        -0.004210      0.004758      0.008698
    total drift:                                0.231928      0.402969      0.640380

  FREE ENERGIE OF THE ION-ELECTRON SYSTEM (eV)
  free  energy   TOTEN  =     -1893.23106970 eV

  energy  without entropy=    -1893.23106970  energy(sigma->0) =    -1893.23106970

 NEB: the previous image is higher in energy: F
 NEB: the next image is higher in energy    : F
 NEB: image is at an extrema
 NEB: diff energy (min, max):     0.128370    0.304006

 NEB: Tangent
     -0.04784      0.09922     -0.05928
     -0.10707     -0.21208      0.02285
     -0.01710      0.05274     -0.06080
      0.09369     -0.30957     -0.12263
      0.00687     -0.00279      0.00235
      0.00000      0.00000      0.00000
      0.00000      0.00000      0.00000
      0.00000      0.00000      0.00000
      0.00000      0.00000      0.00000
      0.00000      0.00000      0.00000
      0.00000      0.00000      0.00000
     -0.00012     -0.00005      0.00117
      0.00000      0.00000      0.00000
      0.00046     -0.00071     -0.00120
      0.04785      0.05025     -0.05051
      0.00372     -0.00271     -0.00233
      0.00048     -0.00058      0.00140
      0.00000      0.00000      0.00000
      0.00000      0.00000      0.00000
      0.01242      0.00514      0.00866
      0.00000      0.00000      0.00000
      0.00000      0.00000      0.00000
      0.00000      0.00000      0.00000
      0.00000      0.00000      0.00000
      0.00000      0.00000      0.00000
     -0.00319     -0.00097      0.00381
      0.00000      0.00000      0.00000
      0.00000      0.00000      0.00000
      0.00000      0.00000      0.00000
      0.00000      0.00000      0.00000
      0.00000      0.00000      0.00000
      0.00000      0.00000      0.00000
      0.00458     -0.00159      0.00406
     -0.00730      0.00166      0.01310
     -0.00569      0.00186      0.00117
      0.00000      0.00000      0.00000
      0.00000      0.00000      0.00000
      0.00000      0.00000      0.00000
      0.00000      0.00000      0.00000
      0.00000      0.00000      0.00000
      0.00000      0.00000      0.00000
      0.00000      0.00000      0.00000
      0.00000      0.00000      0.00000
      0.00000      0.00000      0.00000
      0.00189      0.00100      0.00305
      0.00234     -0.00085      0.00132
      0.00014      0.00932      0.00085
      0.01757      0.00233     -0.00158
     -0.01715      0.08700     -0.04281
     -0.24041     -0.09050      0.11529
     -0.01727      0.00064     -0.06763
     -0.03061      0.03922     -0.06523
      0.03742      0.06722     -0.03256
      0.05141     -0.37305     -0.10190
      0.17135     -0.41121     -0.17162
      0.18823     -0.15508     -0.15432
      0.00000      0.00000      0.00000
      0.00000      0.00000      0.00000
      0.00349     -0.00150      0.00000
      0.00302      0.01998     -0.00364
[...]
      0.00000      0.00000      0.00000
      0.00000      0.00000      0.00000
      0.00196      0.00728      0.00100
      0.00000      0.00000      0.00000
      0.00388     -0.00200      0.00102
      0.00000      0.00000      0.00000
      0.00000      0.00000      0.00000
      0.00000      0.00000      0.00000
      0.00000      0.00000      0.00000
      0.00345     -0.00235     -0.00046
      0.00000      0.00000      0.00000
      0.00445      0.00189      0.00045
     -0.00416      0.01570      0.00040
      0.01251      0.00731      0.02228
     -0.10780      0.11231      0.00532

 NEB: forces: par spring, perp REAL, dneb     0.763154    0.154140    0.000000
 NEB: distance to prev, next image, angle between     1.200806    1.353437  142.315269
 NEB: projections on to tangent (spring, REAL)     0.763154   -0.016342

 stress matrix after NEB project (eV)
    -32.67333      0.10019      0.28662
      0.10019    -33.42467     -0.02477
      0.28662     -0.02477    -25.16122
  FORCES: max atom, RMS     0.043867    0.009313
  FORCE total and by dimension    0.155004    0.040881
  Stress total and by dimension   53.085105   33.424672
 OPT: skip step - force has converged

 reached required accuracy - stopping structural energy minimisation