 vasp.5.4.4.18Apr17-6-g9f103f2a35 (build Oct 20 2021 08:33:53) complex
 executed on             LinuxGNU date 2024.03.19  22:01:57

 INCAR:
 POTCAR:    PAW_PBE C 08Apr2002
 POTCAR:    PAW_PBE H 15Jun2001
 POTCAR:    PAW_PBE O 08Apr2002
 POTCAR:    PAW_PBE Si 05Jan2001
 POTCAR:    PAW_PBE W 08Apr2002
 POTCAR:    PAW_PBE C 08Apr2002
   VRHFIN =C: s2p2

   TITEL  = PAW_PBE C 08Apr2002
   POMASS =   12.011; ZVAL   =    4.000    mass and valenz
   ENMAX  =  400.000; ENMIN  =  300.000 eV

 POTCAR:    PAW_PBE H 15Jun2001
   VRHFIN =H: ultrasoft test

   TITEL  = PAW_PBE H 15Jun2001
   POMASS =    1.000; ZVAL   =    1.000    mass and valenz
   ENMAX  =  250.000; ENMIN  =  200.000 eV

 POTCAR:    PAW_PBE O 08Apr2002
   VRHFIN =O: s2p4

[...]

 POTCAR:    PAW_PBE Si 05Jan2001
   VRHFIN =Si: s2p2

   TITEL  = PAW_PBE Si 05Jan2001
   POMASS =   28.085; ZVAL   =    4.000    mass and valenz
   ENMAX  =  245.345; ENMIN  =  184.009 eV

 POTCAR:    PAW_PBE W 08Apr2002
   VRHFIN =W : 6s5d

   TITEL  = PAW_PBE W 08Apr2002
   POMASS =  183.850; ZVAL   =    6.000    mass and valenz
   ENMAX  =  223.057; ENMIN  =  167.293 eV

 Optimization of the real space projectors (new method)

 maximal supplied QI-value         = 25.13
 optimisation between [QCUT,QGAM] = [ 11.31, 22.87] = [ 35.82,146.48] Ry
 Optimized for a Real-space Cutoff    1.00 Angstroem

   l    n(q)    QCUT    max X(q) W(low)/X(q) W(high)/X(q)  e(spline)
   0      7    11.310   115.676    0.43E-03    0.13E-02    0.19E-06
   0      7    11.310    87.132    0.43E-03    0.13E-02    0.18E-06
   1      6    11.310     4.429    0.42E-03    0.74E-03    0.11E-06
   1      6    11.310     2.733    0.34E-03    0.55E-03    0.92E-07
 Optimization of the real space projectors (new method)

[...]

   l    n(q)    QCUT    max X(q) W(low)/X(q) W(high)/X(q)  e(spline)
   0      8    11.310   159.560    0.27E-03    0.30E-03    0.39E-07
   0      8    11.310   115.863    0.27E-03    0.30E-03    0.38E-07
   1      7    11.310    88.339    0.28E-03    0.28E-03    0.77E-07
   1      7    11.310    48.592    0.27E-03    0.27E-03    0.74E-07
 Optimization of the real space projectors (new method)

 maximal supplied QI-value         = 13.61
 optimisation between [QCUT,QGAM] = [ 11.43, 22.86] = [ 36.58,146.31] Ry
 Optimized for a Real-space Cutoff    1.56 Angstroem

   l    n(q)    QCUT    max X(q) W(low)/X(q) W(high)/X(q)  e(spline)
   2     10    11.429   130.855    0.22E-03    0.64E-03    0.11E-05
   2     10    11.429   114.007    0.22E-03    0.64E-03    0.11E-05
   0     11    11.429    84.709    0.39E-04    0.67E-04    0.23E-06
   0     11    11.429    49.163    0.35E-04    0.62E-04    0.21E-06
   1     10    11.429    15.765    0.84E-04    0.15E-03    0.24E-06
   1     10    11.429    10.638    0.58E-04    0.12E-03    0.19E-06

  PAW_PBE C 08Apr2002                   :
  PAW_PBE H 15Jun2001                   :
  PAW_PBE O 08Apr2002                   :
  PAW_PBE Si 05Jan2001                  :
  PAW_PBE W 08Apr2002                   :

 POSCAR:  C  H  O Si  W
  positions in direct lattice
  velocities in cartesian coordinates
 exchange correlation table for  LEXCH =        9
   RHO(1)=    0.500       N(1)  =     2000
   RHO(2)=  100.500       N(2)  =     4000

 VTST: version 3.2, (02/03/18)

 CHAIN: initializing optimizer

 OPT: Using VASP Conjugate-Gradient optimizer
 CHAIN: Read ICHAIN            0

 POSCAR:  C  H  O Si  W
  positions in direct lattice
  velocities in cartesian coordinates

 ion  position               nearest neighbor table
   1  0.458  0.578  0.800-  48 1.09  47 1.09   2 1.34
   2  0.472  0.510  0.816-  49 1.09  50 1.09   1 1.34
   3  0.760  0.103  0.651- 125 0.97
   4  0.926  0.276  0.356-  73 0.98
   5  0.793  0.205  0.373- 108 0.97
   6  0.974  0.941  0.325- 117 0.97
   7  0.626  0.961  0.375- 119 0.98
   8  0.820  0.993  0.369- 137 0.97
   9  0.750  0.139  0.458- 175 0.98
  10  0.915  0.247  0.510- 180 0.97
  11  0.583  0.302  0.306- 185 0.97
  12  0.893  0.333  0.615-  91 0.98
  13  0.590  0.358  0.614- 136 0.97
  14  0.593  0.868  0.577- 178 0.99
  15  0.036  0.336  0.651- 184 0.97
  16  0.935  0.417  0.454- 173 0.98
  17  0.746  0.528  0.422-  87 1.00
  18  0.810  0.392  0.641- 165 0.97
  19  0.591  0.566  0.378-  99 0.99
  20  0.718  0.644  0.383- 122 0.99
  21  0.841  0.540  0.420- 128 0.98
  22  0.005  0.602  0.358- 133 0.97
  23  0.828  0.710  0.468- 174 0.99
  24  0.870  0.592  0.724-  53 0.97
  25  0.520  0.983  0.422- 135 0.99
  26  0.223  0.978  0.393- 176 1.00
  27  0.216  0.236  0.319- 191 0.99
  28  0.157  0.328  0.279- 182 0.97
  29  0.341  0.153  0.331- 183 0.98
  30  0.223  0.043  0.323- 190 0.97
  31  0.511  0.822  0.547- 193 0.97
  32  0.380  0.239  0.647-  78 0.97
  33  0.245  0.090  0.598- 129 0.98
  34  0.315  0.485  0.442-  52 0.99
  35  0.409  0.436  0.406- 141 0.98
  36  0.398  0.791  0.389- 179 0.97
  37  0.244  0.653  0.294- 187 0.97
  38  0.312  0.416  0.369- 188 0.98
  39  0.405  0.582  0.339- 189 0.97
  40  0.139  0.486  0.352- 181 0.98
  41  0.593  0.696  0.352-  82 0.97
  42  0.469  0.859  0.444- 192 0.99
  43  0.121  0.319  0.609- 101 0.97
  44  0.072  0.662  0.646- 132 0.97
  45  0.241  0.380  0.682- 177 0.97
  46  0.246  0.815  0.668- 186 0.97
  47  0.490  0.620  0.793-   1 1.09
  48  0.414  0.594  0.794-   1 1.09
  49  0.517  0.494  0.821-   2 1.09
  50  0.440  0.468  0.823-   2 1.09
  51  0.369  0.646  0.439- 225 1.66 260 1.68
  52  0.347  0.502  0.420-  34 0.99 260 1.67
  53  0.862  0.562  0.695-  24 0.97 231 1.64
  54  0.350  0.954  0.530- 236 1.68 269 1.70
  55  0.033  0.930  0.529- 251 1.63 262 1.66
  56  0.636  0.077  0.489- 229 1.60 218 1.65
  57  0.069  0.050  0.395- 217 1.64 209 1.65
  58  0.452  0.127  0.421- 234 1.65 215 1.65
  59  0.806  0.211  0.483- 233 1.67 230 1.69
  60  0.973  0.179  0.599- 211 1.63 241 1.65
[...]
 213  0.214  0.474  0.510- 172 1.61 171 1.63 131 1.66 168 1.66 224 3.09 257 3.14
 214  0.915  0.753  0.496-  96 1.65 174 1.65  80 1.66  85 1.66 227 2.99 235 3.03
 215  0.520  0.108  0.426- 107 1.64  58 1.65 135 1.66 115 1.67 246 3.08 229 3.13
 216  0.419  0.165  0.589-  78 1.64 195 1.65  95 1.68 155 1.69 269 3.14 256 3.14
 217  0.083  0.137  0.407-  57 1.64 138 1.65  83 1.65 151 1.66 210 3.11 209 3.13 263 3.14
 218  0.702  0.043  0.487-  90 1.64 159 1.65  56 1.65 175 1.66 229 3.09 219 3.10 253 3.15
 219  0.665  0.896  0.437-  89 1.53 159 1.66 119 1.66 150 1.67 265 2.83 252 3.06 218 3.10
 220  0.650  0.502  0.430-  99 1.65 157 1.65  87 1.67  93 1.68 228 3.07
 221  0.198  0.910  0.464- 130 1.50 176 1.64 153 1.66 109 1.67 239 3.01 236 3.05 262 3.07
 222  0.214  0.364  0.603-  77 1.64 172 1.64 101 1.64 177 1.65
 223  0.674  0.812  0.594- 178 1.62 110 1.64  92 1.68 200 1.71 250 2.90
 224  0.216  0.639  0.538- 163 1.63 170 1.63 196 1.65 131 1.65 239 3.09 213 3.09 268 3.13
 225  0.369  0.733  0.459-  67 1.65  51 1.66  98 1.67 179 1.68
 226  0.797  0.887  0.596- 134 1.66  92 1.66 103 1.67 199 1.68 235 2.86 227 2.99 253 3.14
 227  0.880  0.910  0.512-  66 1.60  85 1.62 103 1.65 111 1.66 214 2.99 226 2.99 251 3.06 242 3.13

 228  0.576  0.573  0.512-  93 1.58 160 1.62  94 1.63 127 1.65 238 3.00 220 3.07
 229  0.590  0.113  0.525-  56 1.60 115 1.61 152 1.62 142 1.65 256 2.86 218 3.09 240 3.11 215 3.13

[...]

 267  0.287  0.208  0.459- 167 1.62 116 1.63  61 1.66 146 1.67 245 3.02 263 3.12
 268  0.088  0.623  0.568- 156 1.63 132 1.63 102 1.64 163 1.65 264 3.09 224 3.13 244 3.15
 269  0.355  0.014  0.578- 155 1.63  63 1.66 202 1.69  54 1.70 236 2.38 255 2.75 216 3.14
 270  0.488  0.476  0.572- 127 1.63 121 1.67  79 1.67  71 1.68 247 3.01 271 3.22
 271  0.494  0.488  0.691- 205 1.73 204 1.73  71 1.93 118 1.95 247 3.06 270 3.22

  LATTYP: Found a simple orthorhombic cell.
 ALAT       =    18.1212369514
 B/A-ratio  =     1.2919258579
 C/A-ratio  =     1.4835282260

  Lattice vectors:

 A1 = (   0.0000000000, -18.1212369514,   0.0000000000)
 A2 = ( -23.4112945954,   0.0000000000,   0.0000000000)
 A3 = (   0.0000000000,   0.0000000000, -26.8833665073)

Analysis of symmetry for initial positions (statically):
 Subroutine PRICEL returns:
 Original cell was already a primitive cell.

 Routine SETGRP: Setting up the symmetry group for a
 simple orthorhombic supercell.

 Subroutine GETGRP returns: Found  1 space group operations
 (whereof  1 operations were pure point group operations)
 out of a pool of  8 trial point group operations.

The static configuration has the point symmetry C_1 .

Analysis of symmetry for dynamics (positions and initial velocities):
 Subroutine PRICEL returns:
 Original cell was already a primitive cell.

[...]

The dynamic configuration has the point symmetry C_1 .

Analysis of constrained symmetry for selective dynamics:
 Subroutine PRICEL returns:
 Original cell was already a primitive cell.

 Routine SETGRP: Setting up the symmetry group for a
 simple orthorhombic supercell.

 Subroutine GETGRP returns: Found  1 space group operations
 (whereof  1 operations were pure point group operations)
 out of a pool of  8 trial point group operations.

The constrained configuration has the point symmetry C_1 .

 Subroutine INISYM returns: Found  1 space group operations
 (whereof  1 operations are pure point group operations),
 and found     1 'primitive' translations

 KPOINTS: KPOINTS created by Atomic Simulation Env

Automatic generation of k-mesh.
Space group operators:
 irot       det(A)        alpha          n_x          n_y          n_z        tau_x        tau_y        tau_z
    1     1.000000     0.000000     1.000000     0.000000     0.000000     0.000000     0.000000     0.000000

 Subroutine IBZKPT returns following result:

 Found      5 irreducible k-points:

 Following reciprocal coordinates:
            Coordinates               Weight
  0.000000  0.000000  0.000000      1.000000
  0.333333  0.000000  0.000000      2.000000
  0.000000  0.333333  0.000000      2.000000
  0.333333  0.333333  0.000000      2.000000
 -0.333333  0.333333  0.000000      2.000000

 Following cartesian coordinates:
            Coordinates               Weight
  0.000000  0.000000  0.000000      1.000000
  0.014238  0.000000  0.000000      2.000000
  0.000000  0.018395  0.000000      2.000000
  0.014238  0.018395  0.000000      2.000000
 -0.014238  0.018395  0.000000      2.000000

 SYSTEM =  unknown system
 POSCAR =   C  H  O Si  W

 Startparameter for this run:
   NWRITE =      2    write-flag & timer
   PREC   = normal    normal or accurate (medium, high low for compatibility)
   ISTART =      0    job   : 0-new  1-cont  2-samecut
   ICHARG =      2    charge: 1-file 2-atom 10-const
   ISPIN  =      1    spin polarized calculation?
   LNONCOLLINEAR =      F non collinear calculations
   LSORBIT =      F    spin-orbit coupling
   INIWAV =      1    electr: 0-lowe 1-rand  2-diag
   LASPH  =      T    aspherical Exc in radial PAW
   METAGGA=      F    non-selfconsistent MetaGGA calc.

 Electronic Relaxation 1
   ENCUT  =  500.0 eV  36.75 Ry    6.06 a.u.  42.68 33.04 49.01*2*pi/ulx,y,z
   ENINI  =  500.0     initial cutoff
   ENAUG  =  644.9 eV  augmentation charge cutoff
   NELM   =     60;   NELMIN=  2; NELMDL=  0     # of ELM steps
   EDIFF  = 0.1E-03   stopping-criterion for ELM
[...]
   0.393E+02 0.377E+01 -.217E+03   -.429E+02 -.618E+01 0.224E+03   0.359E+01 0.243E+01 -.720E+01   -.155E-03 -.132E-03 0.847E-04
   0.967E+02 0.274E+02 0.131E+03   -.104E+03 -.309E+02 -.130E+03   0.737E+01 0.362E+01 -.921E+00   -.479E-04 -.262E-04 -.114E-04
   0.278E+02 0.734E+02 0.168E+03   -.301E+02 -.808E+02 -.170E+03   0.240E+01 0.751E+01 0.249E+01   -.859E-04 -.108E-03 0.721E-04
   0.835E+02 0.519E+02 0.178E+03   -.907E+02 -.547E+02 -.181E+03   0.733E+01 0.292E+01 0.253E+01   -.435E-04 0.758E-04 -.241E-04
   0.482E+02 -.602E+02 0.163E+03   -.538E+02 0.659E+02 -.164E+03   0.572E+01 -.579E+01 0.116E+01   -.438E-04 0.228E-03 0.167E-03
   0.932E+02 0.256E+02 0.148E+03   -.101E+03 -.270E+02 -.148E+03   0.814E+01 0.144E+01 0.300E+00   -.778E-04 0.950E-04 0.120E-03
   -.638E+01 -.678E+02 0.383E+02   0.867E+01 0.748E+02 -.358E+02   -.237E+01 -.718E+01 -.261E+01   -.168E-03 -.262E-03 0.150E-03
   0.256E+02 -.876E+02 -.157E+02   -.257E+02 0.959E+02 0.161E+02   0.203E+00 -.838E+01 -.463E+00   0.364E-04 -.748E-04 -.414E-05
   -.374E+02 -.790E+02 0.193E+03   0.395E+02 0.860E+02 -.197E+03   -.220E+01 -.716E+01 0.348E+01   -.364E-04 -.570E-04 0.915E-04
   0.539E+02 -.452E+02 -.833E+02   -.592E+02 0.504E+02 0.798E+02   0.536E+01 -.517E+01 0.354E+01   0.165E-03 0.238E-03 -.294E-03
   0.192E+01 -.549E+02 -.139E+03   -.478E+01 0.623E+02 0.142E+03   0.292E+01 -.745E+01 -.239E+01   0.751E-04 -.867E-04 -.144E-03
   0.599E+02 -.109E+02 -.715E+02   -.668E+02 0.926E+01 0.682E+02   0.690E+01 0.166E+01 0.326E+01   -.318E-04 0.575E-03 0.607E-04
   -.355E+01 -.857E+02 -.188E+03   0.388E+01 0.930E+02 0.192E+03   -.342E+00 -.730E+01 -.410E+01   0.301E-04 0.109E-03 -.697E-04
   -.338E+02 0.210E+02 0.982E+02   0.386E+02 -.258E+02 -.102E+03   -.492E+01 0.497E+01 0.435E+01   0.448E-04 0.576E-05 0.140E-03
   -.746E+02 0.282E+02 0.956E+02   0.811E+02 -.313E+02 -.952E+02   -.678E+01 0.325E+01 -.455E+00   -.149E-03 -.144E-03 -.168E-04
   0.266E+02 0.417E+02 -.205E+03   -.293E+02 -.431E+02 0.213E+03   0.271E+01 0.134E+01 -.782E+01   -.835E-04 0.417E-03 -.152E-03
   0.283E+02 -.474E+02 0.163E+03   -.305E+02 0.545E+02 -.165E+03   0.234E+01 -.731E+01 0.185E+01   -.631E-04 -.139E-03 0.458E-04
   -.288E+02 0.714E+02 0.148E+03   0.287E+02 -.789E+02 -.147E+03   0.909E-01 0.772E+01 -.584E+00   -.116E-03 -.114E-03 -.148E-03
   -.611E+02 -.774E+02 0.116E+03   0.657E+02 0.840E+02 -.117E+03   -.469E+01 -.669E+01 0.105E+01   0.270E-04 -.169E-03 0.190E-04
   0.121E+03 -.102E+02 0.127E+03   -.129E+03 0.104E+02 -.127E+03   0.828E+01 -.202E+00 -.538E+00   -.278E-04 -.113E-03 -.568E-04
   0.373E+02 0.495E+01 0.710E+02   -.449E+02 -.407E+01 -.705E+02   0.779E+01 -.934E+00 -.608E+00   0.242E-03 0.551E-04 0.184E-03
   -.398E+02 -.373E+02 -.219E+03   0.415E+02 0.417E+02 0.226E+03   -.172E+01 -.443E+01 -.696E+01   0.131E-04 0.369E-03 -.215E-03
   0.452E+02 0.592E+02 0.768E+02   -.485E+02 -.654E+02 -.734E+02   0.328E+01 0.627E+01 -.354E+01   0.771E-04 0.292E-03 0.256E-03
   -.157E+02 -.348E+02 0.129E+03   0.160E+02 0.412E+02 -.132E+03   -.263E+00 -.677E+01 0.317E+01   0.791E-04 -.457E-05 -.671E-04
   0.190E+02 -.452E+02 0.180E+03   -.233E+02 0.510E+02 -.182E+03   0.441E+01 -.594E+01 0.228E+01   0.342E-04 -.322E-04 -.135E-03
   -.187E+01 -.365E+02 0.238E+03   0.240E+01 0.403E+02 -.245E+03   -.514E+00 -.386E+01 0.729E+01   -.130E-04 -.320E-04 -.856E-04
   0.440E+02 -.136E+02 0.191E+03   -.501E+02 0.170E+02 -.195E+03   0.619E+01 -.354E+01 0.405E+01   0.181E-03 -.169E-04 -.189E-04
   -.163E+01 0.498E+02 0.228E+03   0.993E+00 -.516E+02 -.236E+03   0.646E+00 0.182E+01 0.809E+01   0.543E-04 0.151E-04 -.107E-03
   0.669E+02 0.897E+01 -.671E+02   -.746E+02 -.938E+01 0.702E+02   0.770E+01 0.418E+00 -.305E+01   -.133E-05 0.548E-03 0.106E-04
   0.463E+02 -.813E+02 -.151E+03   -.500E+02 0.888E+02 0.152E+03   0.367E+01 -.754E+01 -.100E+01   -.208E-04 -.116E-03 -.235E-03
   0.133E+02 0.768E+02 -.103E+03   -.116E+02 -.848E+02 0.102E+03   -.166E+01 0.794E+01 0.131E+01   -.352E-04 -.201E-04 0.172E-03
   0.168E+02 0.172E+02 -.561E+01   -.222E+02 -.197E+02 0.101E+02   0.560E+01 0.252E+01 -.459E+01   0.299E-03 0.482E-05 -.706E-04
   0.280E+02 -.518E+02 0.523E+02   -.332E+02 0.562E+02 -.484E+02   0.525E+01 -.445E+01 -.402E+01   0.287E-03 -.180E-03 -.440E-04
   0.145E+02 -.263E+02 0.208E+03   -.166E+02 0.271E+02 -.215E+03   0.214E+01 -.795E+00 0.797E+01   0.936E-04 0.991E-04 0.691E-05
   -.766E+02 -.273E+02 0.198E+03   0.837E+02 0.283E+02 -.202E+03   -.723E+01 -.106E+01 0.394E+01   0.379E-04 0.350E-05 -.165E-03
   -.833E+02 -.367E+02 0.134E+03   0.903E+02 0.406E+02 -.133E+03   -.716E+01 -.403E+01 -.162E+00   0.172E-03 -.950E-04 -.144E-03
   -.102E+03 0.111E+02 0.154E+03   0.110E+03 -.131E+02 -.155E+03   -.796E+01 0.202E+01 0.105E+01   0.114E-03 -.225E-04 -.748E-04
   0.479E+00 -.695E+02 0.999E+02   0.817E+00 0.762E+02 -.959E+02   -.133E+01 -.693E+01 -.420E+01   -.126E-03 -.676E-04 -.906E-04
   -.325E+02 -.493E+02 0.218E+03   0.365E+02 0.538E+02 -.223E+03   -.406E+01 -.454E+01 0.559E+01   -.983E-04 -.611E-04 -.660E-04
   0.758E+02 0.226E+02 0.108E+03   -.817E+02 -.267E+02 -.111E+03   0.621E+01 0.436E+01 0.246E+01   0.551E-04 0.269E-03 0.110E-03
   0.473E+02 0.539E+02 -.110E+03   -.524E+02 -.604E+02 0.108E+03   0.504E+01 0.650E+01 0.159E+01   -.125E-03 0.115E-03 0.661E-04
   -.152E+02 -.695E+02 -.195E+03   0.173E+02 0.756E+02 0.201E+03   -.214E+01 -.608E+01 -.541E+01   0.777E-04 -.432E-04 0.205E-03
   0.139E+02 0.248E+02 -.224E+03   -.153E+02 -.278E+02 0.232E+03   0.141E+01 0.301E+01 -.771E+01   -.117E-03 0.532E-04 0.207E-03
   0.260E+02 -.767E+02 -.195E+03   -.260E+02 0.837E+02 0.200E+03   -.177E-01 -.701E+01 -.462E+01   -.941E-04 -.217E-03 -.966E-04
   -.303E+02 -.576E+02 -.116E+03   0.342E+02 0.616E+02 0.115E+03   -.400E+01 -.398E+01 0.998E+00   -.270E-03 0.198E-03 0.230E-03
   0.693E+02 -.290E+02 -.110E+03   -.747E+02 0.305E+02 0.109E+03   0.546E+01 -.151E+01 0.876E+00   -.315E-03 0.655E-04 -.156E-04
   -.532E+02 0.240E+02 -.129E+03   0.587E+02 -.255E+02 0.130E+03   -.555E+01 0.155E+01 -.757E+00   -.243E-03 -.387E-04 0.318E-03
   0.455E+02 0.484E+02 -.123E+03   -.495E+02 -.524E+02 0.124E+03   0.399E+01 0.406E+01 -.944E+00   -.368E-03 -.473E-04 -.932E-04
   -.159E+03 0.497E+02 0.331E+03   0.173E+03 -.611E+02 -.321E+03   -.142E+02 0.115E+02 -.947E+01   0.708E-03 0.391E-03 0.117E-03
   -.181E+03 0.423E+02 0.378E+03   0.209E+03 -.580E+02 -.388E+03   -.278E+02 0.163E+02 0.961E+01   0.154E-02 -.362E-03 -.456E-03
   -.185E+03 0.149E+03 -.941E+03   0.190E+03 -.188E+03 0.936E+03   -.535E+01 0.382E+02 0.534E+01   0.235E-03 0.412E-02 -.439E-03
   -.355E+02 0.209E+02 0.842E+02   0.585E+02 -.307E+02 -.114E+03   -.231E+02 0.983E+01 0.294E+02   -.126E-02 -.694E-03 0.261E-02
   -.104E+03 0.100E+03 -.393E+03   0.111E+03 -.110E+03 0.405E+03   -.677E+01 0.101E+02 -.127E+02   -.506E-03 0.162E-02 0.148E-02
   -.631E+02 -.270E+02 0.158E+03   0.564E+02 0.251E+02 -.179E+03   0.902E+01 0.100E+01 0.211E+02   -.428E-03 -.439E-03 0.118E-03
   -.531E+02 0.114E+03 0.657E+03   0.707E+02 -.124E+03 -.663E+03   -.179E+02 0.103E+02 0.590E+01   -.767E-03 0.199E-03 -.121E-03
   0.604E+02 0.184E+03 0.462E+03   -.679E+02 -.194E+03 -.451E+03   0.744E+01 0.109E+02 -.108E+02   0.161E-02 0.161E-04 0.130E-02
   0.765E+02 -.861E+02 0.273E+01   -.914E+02 0.853E+02 0.129E+02   0.154E+02 0.781E+00 -.159E+02   -.478E-03 -.175E-02 -.857E-04
   0.109E+03 0.691E+02 -.776E+03   -.128E+03 -.767E+02 0.788E+03   0.190E+02 0.765E+01 -.127E+02   0.266E-02 -.199E-02 -.135E-02
[...]
   -.510E+02 -.145E+02 0.207E+03   0.504E+02 0.133E+02 -.209E+03   0.444E+00 0.749E+00 0.890E+00   -.451E-03 -.513E-03 -.384E-03
   0.693E+02 -.390E+02 -.156E+03   -.635E+02 0.368E+02 0.153E+03   -.584E+01 0.221E+01 0.345E+01   0.484E-04 -.176E-02 -.842E-03
   -.894E+02 -.223E+02 0.374E+03   0.894E+02 0.203E+02 -.376E+03   -.168E+00 0.201E+01 0.174E+01   0.681E-03 0.856E-04 -.277E-03
   -.523E+02 0.996E+02 -.269E+03   0.523E+02 -.997E+02 0.271E+03   0.525E-01 0.813E-01 -.198E+01   -.542E-04 0.982E-03 0.665E-03
   -.999E+01 0.257E+00 0.287E+02   0.107E+02 -.351E+01 -.309E+02   -.982E+00 0.967E+01 0.174E+01   -.422E-03 0.704E-03 0.739E-03
   -.290E+02 0.852E+02 0.453E+03   0.289E+02 -.836E+02 -.455E+03   -.303E-01 -.173E+01 0.156E+01   0.128E-03 -.724E-04 -.496E-03
   0.933E+02 -.483E+01 -.278E+02   -.921E+02 0.709E+01 0.283E+02   -.122E+01 -.245E+01 -.777E+00   -.547E-03 -.218E-03 0.111E-02
   0.114E+03 0.182E+02 0.144E+03   -.108E+03 -.111E+02 -.148E+03   -.282E+02 -.230E+02 0.858E+01   -.155E-03 0.148E-02 0.145E-03
   -.824E+01 0.104E+03 -.423E+03   0.100E+02 -.102E+03 0.423E+03   -.174E+01 -.159E+01 0.573E+00   0.215E-02 0.228E-03 0.305E-03
   -.318E+02 0.317E+02 0.124E+03   0.319E+02 -.325E+02 -.124E+03   -.239E+00 0.788E+00 -.124E+01   0.961E-03 -.211E-03 0.285E-04
   0.570E+02 -.189E+02 -.368E+03   -.576E+02 0.196E+02 0.369E+03   0.582E+00 -.649E+00 -.898E+00   -.670E-03 -.434E-03 0.136E-02
   0.522E+02 -.600E+02 -.314E+03   -.536E+02 0.556E+02 0.314E+03   0.145E+01 0.438E+01 -.153E-01   0.449E-03 -.157E-02 -.495E-03
   0.923E+02 0.655E+02 -.199E+03   -.889E+02 -.624E+02 0.200E+03   -.346E+01 -.311E+01 -.877E+00   0.944E-04 -.167E-03 -.145E-02
   0.460E+02 0.791E+02 -.772E+03   -.456E+02 -.806E+02 0.773E+03   -.466E+00 0.159E+01 -.892E+00   -.482E-02 -.419E-02 0.197E-02
   0.336E+03 -.228E+03 -.118E+03   0.149E-11 0.810E-12 0.341E-11   -.336E+03 0.228E+03 0.118E+03   -.393E-01 -.407E-01 0.518E-01

 POSITION                                       TOTAL-FORCE (eV/Angst)
     10.72175     10.47336     21.50334        -0.013777      0.014848     -0.013682
     11.05167      9.24296     21.92845        -0.011850     -0.001468     -0.001598
     17.80396      1.86103     17.50719         0.006364      0.001485     -0.020493
     21.68675      5.00870      9.57948         0.102457      0.073303     -0.024774
     18.57099      3.71502     10.03977         0.039797      0.114894      0.047406
     22.81310     17.05823      8.74523         0.109847      0.058172      0.030129
     14.64709     17.41819     10.08748         0.057300     -0.002824     -0.059900
     19.20775     17.98962      9.91976         0.122029      0.024990     -0.000263
     17.55619      2.51720     12.31361        -0.108927     -0.223543     -0.127279
     21.42648      4.47822     13.71363         0.001231      0.000333     -0.003903
     13.65820      5.47250      8.22435        -0.098071     -0.127299      0.039551
     20.89556      6.03160     16.54250        -0.000264      0.004837     -0.001282
     13.82217      6.48809     16.51029         0.024117     -0.007728      0.004080
     13.88731     15.73361     15.52396        -0.001991     -0.004640      0.001984
      0.83192      6.08793     17.49029        -0.001588      0.008594      0.003347
     21.89377      7.56099     12.20778        -0.086142      0.133035      0.070735
     17.46595      9.56878     11.35790        -0.312945      0.157881     -0.035074
     18.96905      7.10568     17.22754        -0.019934     -0.005139      0.000787
     13.83634     10.26411     10.16285         0.098725     -0.180911      0.059235
     16.81735     11.66397     10.30871        -0.026340      0.243254     -0.020484
     19.69036      9.78831     11.28016        -0.105202     -0.101214      0.015121
      0.10942     10.90044      9.61829         0.112192     -0.007668     -0.029827
     19.39083     12.86765     12.57986         0.228627     -0.040263     -0.059992
     20.37128     10.72364     19.45895         0.001896      0.014373      0.003037
     12.17153     17.81852     11.33680         0.015919      0.129826     -0.101150
      5.22081     17.72049     10.57067        -0.011551     -0.356841      0.119613
      5.06347      4.26903      8.58199         0.177771     -0.197574      0.070049
      3.68518      5.93537      7.50000         0.014804     -0.078580      0.118136
      7.99394      2.77828      8.89229         0.085601     -0.090681      0.063659
      5.21195      0.78808      8.67630         0.003642      0.018837      0.149268
     11.96687     14.89811     14.69346        -0.012967      0.005200      0.004159
      8.88588      4.33889     17.40098         0.006273      0.005218     -0.010377
      5.72610      1.64007     16.06616         0.005924     -0.023964     -0.003984
      7.38136      8.78639     11.89413         0.223821      0.092758     -0.171071
      9.57207      7.90929     10.90633         0.114451     -0.104453     -0.122903
      9.32727     14.33107     10.45190         0.048924      0.003218      0.129071
      5.71497     11.83607      7.91250        -0.104773     -0.016992      0.038960
      7.29615      7.54217      9.92689        -0.167411     -0.092201     -0.012961
      9.49056     10.54674      9.10862        -0.109643      0.039187     -0.007714
      3.26042      8.80156      9.46105        -0.024759     -0.203801     -0.121837
     13.88708     12.60726      9.47364        -0.126028     -0.095141      0.165406
     10.97794     15.56900     11.93160         0.317827      0.335201      0.165063
      2.84285      5.77842     16.37874         0.004706     -0.005731     -0.000333
      1.69431     11.98815     17.36641        -0.000514      0.002799     -0.001342
      5.65263      6.88986     18.34302         0.002020      0.007102     -0.002602
      5.74872     14.77121     17.97113        -0.001202     -0.004468     -0.006338
     11.48255     11.23379     21.31086        -0.006251     -0.003012     -0.009745
      9.68187     10.76263     21.33596        -0.006363      0.006257     -0.019059
     12.09292      8.95203     22.07982        -0.017740      0.005119     -0.002044
     10.29509      8.47721     22.11216        -0.010855      0.006918     -0.008952
      8.63528     11.70787     11.80180        -0.266368      0.119225     -0.202326
      8.11728      9.09259     11.30145        -0.054085      0.596442      0.047176
     20.18544     10.18928     18.67278         0.007071      0.007362      0.006354
      8.18509     17.27937     14.25735        -0.011113      0.006541      0.011851
      0.78401     16.84591     14.21648         0.002388     -0.002587     -0.003947
     14.89579      1.38807     13.15609         2.312415     -0.959828     -0.203555
      1.60498      0.90598     10.62191        -0.321546      0.468537      0.154747
     10.57743      2.30670     11.30707         0.029705      0.029107     -0.126195
     18.86467      3.83048     12.98914         0.542340     -0.020404     -0.240215
     22.78903      3.24139     16.09596        -0.000745      0.012862      0.003074
[...]
      5.71602      6.67109     11.31648         0.010040     -0.128238     -0.119263
     15.41481      5.93892     12.10687        -0.113249     -0.497780     -0.829375
     10.78606      5.68635     14.21199        -0.005306      0.002448      0.000115
      7.89450     10.64936     10.72869        -0.148260     -0.068515     -0.061440
     18.84678      8.64591     15.58612         0.001993      0.003737      0.006849
      1.61817     16.24731     12.91761        -0.320238      6.421072     -0.517625
      4.95891      2.57656     10.04353        -0.087573     -0.036293      0.057565
      1.82941      8.91049     13.29887        -0.021655     -0.196359     -0.343783
     13.05132     15.40433     12.76235       -22.305752    -15.872666      4.681330
     16.84130     10.58274     16.40556         0.010253     -0.000278     -0.006865
      6.70854      3.76617     12.34244        -0.207127      0.025200     -0.818483
      2.05570     11.28602     15.25876         0.004511     -0.011297      0.006603
      8.29959      0.25441     15.54783        -0.008208     -0.004677      0.005032
     11.41406      8.63232     15.36827        -0.001531     -0.002802     -0.010451
     11.57296      8.84641     18.57429        -0.019368      0.004958     -0.007677
    total drift:                                0.050648      0.304288      0.293536

  FREE ENERGIE OF THE ION-ELECTRON SYSTEM (eV)
  free  energy   TOTEN  =     -1861.90355732 eV

  energy  without entropy=    -1861.90355732  energy(sigma->0) =    -1861.90355732

 d Force = 0.6361092E-05[-0.168E-04, 0.295E-04]  d Energy =-0.1279567E-04 0.192E-04
 d Force = 0.9194467E-01[ 0.919E-01, 0.920E-01]  d Ewald  = 0.9194435E-01 0.316E-06

 stress matrix after NEB project (eV)
    -32.45734      0.16919      0.44923
      0.16919    -33.20072     -0.34312
      0.44923     -0.34312    -25.26316
  FORCES: max atom, RMS     0.036978    0.009780
  FORCE total and by dimension    0.161007    0.036444
  Stress total and by dimension   52.864831   33.200722

 reached required accuracy - stopping structural energy minimisation