 vasp.5.4.4.18Apr17-6-g9f103f2a35 (build Oct 20 2021 08:33:53) complex
 executed on             LinuxGNU date 2025.03.08  14:10:41

 INCAR:
 POTCAR:    PAW_PBE C 08Apr2002
 POTCAR:    PAW_PBE H 15Jun2001
 POTCAR:    PAW_PBE O 08Apr2002
 POTCAR:    PAW_PBE Si 05Jan2001
 POTCAR:    PAW_PBE W 08Apr2002
 POTCAR:    PAW_PBE C 08Apr2002
   VRHFIN =C: s2p2

   TITEL  = PAW_PBE C 08Apr2002
   POMASS =   12.011; ZVAL   =    4.000    mass and valenz
   ENMAX  =  400.000; ENMIN  =  300.000 eV

 POTCAR:    PAW_PBE H 15Jun2001
   VRHFIN =H: ultrasoft test

   TITEL  = PAW_PBE H 15Jun2001
   POMASS =    1.000; ZVAL   =    1.000    mass and valenz
   ENMAX  =  250.000; ENMIN  =  200.000 eV

 POTCAR:    PAW_PBE O 08Apr2002
   VRHFIN =O: s2p4

[...]

 POTCAR:    PAW_PBE Si 05Jan2001
   VRHFIN =Si: s2p2

   TITEL  = PAW_PBE Si 05Jan2001
   POMASS =   28.085; ZVAL   =    4.000    mass and valenz
   ENMAX  =  245.345; ENMIN  =  184.009 eV

 POTCAR:    PAW_PBE W 08Apr2002
   VRHFIN =W : 6s5d

   TITEL  = PAW_PBE W 08Apr2002
   POMASS =  183.850; ZVAL   =    6.000    mass and valenz
   ENMAX  =  223.057; ENMIN  =  167.293 eV

 Optimization of the real space projectors (new method)

 maximal supplied QI-value         = 25.13
 optimisation between [QCUT,QGAM] = [ 11.31, 22.87] = [ 35.82,146.48] Ry
 Optimized for a Real-space Cutoff    1.00 Angstroem

   l    n(q)    QCUT    max X(q) W(low)/X(q) W(high)/X(q)  e(spline)
   0      7    11.310   115.676    0.43E-03    0.13E-02    0.19E-06
   0      7    11.310    87.132    0.43E-03    0.13E-02    0.18E-06
   1      6    11.310     4.429    0.42E-03    0.74E-03    0.11E-06
   1      6    11.310     2.733    0.34E-03    0.55E-03    0.92E-07
 Optimization of the real space projectors (new method)

[...]

   l    n(q)    QCUT    max X(q) W(low)/X(q) W(high)/X(q)  e(spline)
   0      8    11.310   159.560    0.27E-03    0.30E-03    0.39E-07
   0      8    11.310   115.863    0.27E-03    0.30E-03    0.38E-07
   1      7    11.310    88.339    0.28E-03    0.28E-03    0.77E-07
   1      7    11.310    48.592    0.27E-03    0.27E-03    0.74E-07
 Optimization of the real space projectors (new method)

 maximal supplied QI-value         = 13.61
 optimisation between [QCUT,QGAM] = [ 11.43, 22.86] = [ 36.58,146.31] Ry
 Optimized for a Real-space Cutoff    1.56 Angstroem

   l    n(q)    QCUT    max X(q) W(low)/X(q) W(high)/X(q)  e(spline)
   2     10    11.429   130.855    0.22E-03    0.64E-03    0.11E-05
   2     10    11.429   114.007    0.22E-03    0.64E-03    0.11E-05
   0     11    11.429    84.709    0.39E-04    0.67E-04    0.23E-06
   0     11    11.429    49.163    0.35E-04    0.62E-04    0.21E-06
   1     10    11.429    15.765    0.84E-04    0.15E-03    0.24E-06
   1     10    11.429    10.638    0.58E-04    0.12E-03    0.19E-06

  PAW_PBE C 08Apr2002                   :
  PAW_PBE H 15Jun2001                   :
  PAW_PBE O 08Apr2002                   :
  PAW_PBE Si 05Jan2001                  :
  PAW_PBE W 08Apr2002                   :

 POSCAR: C  H  O  Si W
  positions in direct lattice
  velocities in cartesian coordinates
 exchange correlation table for  LEXCH =        9
   RHO(1)=    0.500       N(1)  =     2000
   RHO(2)=  100.500       N(2)  =     4000

 VTST: version 3.2, (02/03/18)

 CHAIN: initializing optimizer

 OPT: Using VASP Conjugate-Gradient optimizer
 CHAIN: Read ICHAIN            0

 POSCAR: C  H  O  Si W
  positions in direct lattice
  velocities in cartesian coordinates

 ion  position               nearest neighbor table
   1  0.517  0.472  0.742-  50 1.09  51 1.10 279 1.92
   2  0.411  0.533  0.772-  52 1.09   3 1.38   4 1.51 279 2.66
   3  0.370  0.520  0.736-  53 1.10   2 1.38   5 1.51 279 2.57
   4  0.435  0.609  0.784-  55 1.10  54 1.10  56 1.10   2 1.51
   5  0.329  0.456  0.737-  57 1.10  58 1.10  59 1.10   3 1.51
   6  0.761  0.103  0.651- 134 0.97
   7  0.926  0.279  0.356-  82 0.98
   8  0.793  0.207  0.373- 117 0.97
   9  0.975  0.944  0.325- 126 0.97
  10  0.626  0.963  0.375- 128 0.98
  11  0.821  0.995  0.369- 146 0.97
  12  0.750  0.141  0.458- 184 0.98
  13  0.916  0.249  0.506- 189 0.97
  14  0.583  0.304  0.306- 194 0.97
  15  0.889  0.334  0.615- 100 0.98
  16  0.591  0.360  0.614- 145 0.97
  17  0.593  0.872  0.578- 187 0.99
  18  0.021  0.331  0.662- 193 0.97
  19  0.935  0.420  0.454- 182 0.98
  20  0.746  0.530  0.422-  96 1.00
  21  0.796  0.381  0.633- 174 0.97
  22  0.591  0.569  0.378- 108 0.99
  23  0.718  0.646  0.383- 131 0.99
  24  0.841  0.542  0.420- 137 0.98
  25  0.005  0.604  0.358- 142 0.97
  26  0.828  0.712  0.468- 183 0.99
  27  0.875  0.599  0.722-  62 0.97
  28  0.520  0.986  0.422- 144 0.99
  29  0.223  0.980  0.393- 185 1.00
  30  0.216  0.238  0.319- 200 0.99
  31  0.158  0.330  0.279- 191 0.97
  32  0.342  0.156  0.331- 192 0.98
  33  0.223  0.046  0.323- 199 0.97
  34  0.511  0.827  0.547- 202 0.97
  35  0.404  0.250  0.655-  87 0.97
  36  0.243  0.094  0.599- 138 0.98
  37  0.315  0.487  0.442-  61 0.99
  38  0.409  0.439  0.406- 150 0.98
  39  0.398  0.793  0.389- 188 0.97
  40  0.244  0.655  0.294- 196 0.97
  41  0.312  0.418  0.369- 197 0.98
  42  0.405  0.584  0.339- 198 0.97
  43  0.139  0.488  0.352- 190 0.98
  44  0.593  0.698  0.352-  91 0.97
  45  0.469  0.861  0.444- 201 0.99
  46  0.109  0.334  0.613- 110 0.97
  47  0.072  0.666  0.645- 141 0.97
  48  0.251  0.356  0.671- 186 0.97
  49  0.244  0.816  0.669- 195 0.97
  50  0.524  0.423  0.766-   1 1.09
  51  0.546  0.519  0.750-   1 1.10
  52  0.419  0.490  0.800-   2 1.09
  53  0.359  0.566  0.712-   3 1.10
  54  0.481  0.608  0.790-   4 1.10
  55  0.425  0.648  0.753-   4 1.10
  56  0.414  0.628  0.818-   4 1.10
  57  0.320  0.435  0.700-   5 1.10
  58  0.345  0.410  0.760-   5 1.10
  59  0.288  0.475  0.753-   5 1.10
  60  0.369  0.648  0.439- 233 1.66 268 1.68
[...]
 221  0.214  0.476  0.510- 181 1.62 180 1.63 140 1.66 177 1.66 232 3.09 265 3.14
 222  0.915  0.756  0.496- 105 1.65 183 1.65  89 1.65  94 1.66 235 2.99 243 3.03
 223  0.521  0.110  0.426- 116 1.64  67 1.65 144 1.66 124 1.67 254 3.08 237 3.12
 224  0.417  0.172  0.591-  87 1.64 204 1.66 104 1.68 164 1.69
 225  0.083  0.139  0.407-  66 1.64 147 1.65  92 1.65 160 1.66 218 3.11 217 3.13 271 3.14
 226  0.702  0.045  0.487-  99 1.64 168 1.65  65 1.65 184 1.66 237 3.09 227 3.10 261 3.15
 227  0.665  0.898  0.437-  98 1.53 168 1.66 128 1.66 159 1.67 273 2.83 260 3.06 226 3.10
 228  0.650  0.504  0.430- 108 1.65 166 1.65  96 1.67 102 1.68 236 3.07
 229  0.198  0.912  0.464- 139 1.50 185 1.64 162 1.66 118 1.67 247 3.01 270 3.07 244 3.07
 230  0.204  0.365  0.599- 110 1.63  86 1.64 181 1.64 186 1.65 253 3.13
 231  0.673  0.813  0.595- 187 1.62 119 1.64 101 1.68 209 1.71 258 2.91
 232  0.217  0.642  0.538- 179 1.63 172 1.63 205 1.65 140 1.65 247 3.09 221 3.09 276 3.12
 233  0.369  0.735  0.459-  76 1.65 107 1.65  60 1.66 188 1.68
 234  0.797  0.888  0.596- 143 1.66 101 1.66 112 1.67 208 1.68 243 2.86 235 3.00
 235  0.880  0.912  0.512-  75 1.60  94 1.62 112 1.65 120 1.66 222 2.99 234 3.00 259 3.05 250 3.13

 236  0.576  0.575  0.512- 102 1.58 169 1.62 103 1.63 136 1.65 246 3.01 228 3.07 278 3.14 220 3.14

[...]

 275  0.287  0.210  0.459- 176 1.63 125 1.63  70 1.66 155 1.67 253 3.02 271 3.12
 276  0.088  0.625  0.568- 165 1.63 141 1.63 111 1.64 172 1.65 272 3.09 232 3.12 252 3.15
 277  0.352  0.020  0.581- 164 1.63  72 1.66  63 1.70 211 1.70 244 2.39 263 2.74
 278  0.485  0.483  0.571- 136 1.64  80 1.65 130 1.68  88 1.68 255 2.92 236 3.14 279 3.25
 279  0.462  0.482  0.690- 213 1.73   1 1.92  80 1.99 127 2.01   3 2.57   2 2.66 255 3.23 278 3.25

  LATTYP: Found a simple orthorhombic cell.
 ALAT       =    18.1212369514
 B/A-ratio  =     1.2919258579
 C/A-ratio  =     1.4835282260

  Lattice vectors:

 A1 = (   0.0000000000, -18.1212369514,   0.0000000000)
 A2 = ( -23.4112945954,   0.0000000000,   0.0000000000)
 A3 = (   0.0000000000,   0.0000000000, -26.8833665073)

Analysis of symmetry for initial positions (statically):
 Subroutine PRICEL returns:
 Original cell was already a primitive cell.

 Routine SETGRP: Setting up the symmetry group for a
 simple orthorhombic supercell.

 Subroutine GETGRP returns: Found  1 space group operations
 (whereof  1 operations were pure point group operations)
 out of a pool of  8 trial point group operations.

The static configuration has the point symmetry C_1 .

Analysis of symmetry for dynamics (positions and initial velocities):
 Subroutine PRICEL returns:
 Original cell was already a primitive cell.

[...]

The dynamic configuration has the point symmetry C_1 .

Analysis of constrained symmetry for selective dynamics:
 Subroutine PRICEL returns:
 Original cell was already a primitive cell.

 Routine SETGRP: Setting up the symmetry group for a
 simple orthorhombic supercell.

 Subroutine GETGRP returns: Found  1 space group operations
 (whereof  1 operations were pure point group operations)
 out of a pool of  8 trial point group operations.

The constrained configuration has the point symmetry C_1 .

 Subroutine INISYM returns: Found  1 space group operations
 (whereof  1 operations are pure point group operations),
 and found     1 'primitive' translations

 KPOINTS: KPOINTS created by Atomic Simulation Env

Automatic generation of k-mesh.
Space group operators:
 irot       det(A)        alpha          n_x          n_y          n_z        tau_x        tau_y        tau_z
    1     1.000000     0.000000     1.000000     0.000000     0.000000     0.000000     0.000000     0.000000

 Subroutine IBZKPT returns following result:

 Found      5 irreducible k-points:

 Following reciprocal coordinates:
            Coordinates               Weight
  0.000000  0.000000  0.000000      1.000000
  0.333333  0.000000  0.000000      2.000000
  0.000000  0.333333  0.000000      2.000000
  0.333333  0.333333  0.000000      2.000000
 -0.333333  0.333333  0.000000      2.000000

 Following cartesian coordinates:
            Coordinates               Weight
  0.000000  0.000000  0.000000      1.000000
  0.014238  0.000000  0.000000      2.000000
  0.000000  0.018395  0.000000      2.000000
  0.014238  0.018395  0.000000      2.000000
 -0.014238  0.018395  0.000000      2.000000

 SYSTEM =  unknown system
 POSCAR =  C  H  O  Si W

 Startparameter for this run:
   NWRITE =      2    write-flag & timer
   PREC   = normal    normal or accurate (medium, high low for compatibility)
   ISTART =      0    job   : 0-new  1-cont  2-samecut
   ICHARG =      2    charge: 1-file 2-atom 10-const
   ISPIN  =      1    spin polarized calculation?
   LNONCOLLINEAR =      F non collinear calculations
   LSORBIT =      F    spin-orbit coupling
   INIWAV =      1    electr: 0-lowe 1-rand  2-diag
   LASPH  =      T    aspherical Exc in radial PAW
   METAGGA=      F    non-selfconsistent MetaGGA calc.

 Electronic Relaxation 1
   ENCUT  =  500.0 eV  36.75 Ry    6.06 a.u.  42.68 33.04 49.01*2*pi/ulx,y,z
   ENINI  =  500.0     initial cutoff
   ENAUG  =  644.9 eV  augmentation charge cutoff
   NELM   =     60;   NELMIN=  2; NELMDL=  0     # of ELM steps
   EDIFF  = 0.1E-03   stopping-criterion for ELM
   LREAL  =      T    real-space projection
[...]
   0.156E+03 -.353E+02 -.466E+03   -.159E+03 0.359E+02 0.466E+03   0.261E+01 -.659E+00 0.235E-03   0.292E-02 0.220E-03 -.249E-02
   -.114E+02 -.138E+03 -.552E+03   0.122E+02 0.139E+03 0.552E+03   -.772E+00 -.179E+01 0.507E+00   0.364E-03 0.914E-05 -.116E-02
   0.164E+03 0.736E+02 -.511E+03   -.165E+03 -.753E+02 0.510E+03   0.802E+00 0.174E+01 0.321E+00   -.551E-04 0.791E-03 -.113E-03
   0.397E+02 0.538E+01 -.216E+03   -.433E+02 -.793E+01 0.223E+03   0.360E+01 0.256E+01 -.714E+01   -.564E-04 -.311E-04 -.260E-03
   0.972E+02 0.275E+02 0.131E+03   -.104E+03 -.310E+02 -.130E+03   0.737E+01 0.362E+01 -.922E+00   -.196E-03 0.552E-04 -.114E-04
   0.279E+02 0.736E+02 0.168E+03   -.303E+02 -.809E+02 -.171E+03   0.240E+01 0.751E+01 0.249E+01   -.112E-03 -.135E-04 0.154E-03
   0.839E+02 0.519E+02 0.179E+03   -.911E+02 -.548E+02 -.181E+03   0.733E+01 0.292E+01 0.253E+01   -.980E-04 -.756E-04 0.755E-04
   0.478E+02 -.602E+02 0.163E+03   -.535E+02 0.659E+02 -.164E+03   0.572E+01 -.579E+01 0.116E+01   0.143E-03 0.685E-04 0.978E-04
   0.934E+02 0.257E+02 0.148E+03   -.101E+03 -.271E+02 -.149E+03   0.814E+01 0.144E+01 0.299E+00   -.616E-04 -.701E-04 0.188E-03
   -.627E+01 -.675E+02 0.386E+02   0.855E+01 0.745E+02 -.361E+02   -.236E+01 -.718E+01 -.261E+01   -.145E-03 -.510E-04 0.200E-03
   0.240E+02 -.874E+02 -.243E+01   -.240E+02 0.958E+02 0.207E+01   0.589E-01 -.840E+01 0.386E+00   -.551E-03 0.121E-03 0.509E-04
   -.378E+02 -.788E+02 0.194E+03   0.399E+02 0.858E+02 -.197E+03   -.220E+01 -.716E+01 0.347E+01   0.628E-04 0.188E-04 0.990E-04
   0.539E+02 -.474E+02 -.857E+02   -.593E+02 0.528E+02 0.825E+02   0.534E+01 -.539E+01 0.326E+01   -.272E-03 -.112E-03 -.656E-04
   0.135E+01 -.587E+02 -.142E+03   -.430E+01 0.660E+02 0.144E+03   0.299E+01 -.740E+01 -.244E+01   0.248E-03 -.144E-03 -.249E-03
   0.597E+02 -.137E+02 -.721E+02   -.667E+02 0.122E+02 0.688E+02   0.698E+01 0.147E+01 0.323E+01   0.188E-03 0.519E-04 -.957E-04
   0.137E+02 -.661E+02 -.210E+03   -.153E+02 0.716E+02 0.217E+03   0.164E+01 -.551E+01 -.608E+01   -.484E-03 0.152E-03 0.146E-03
   -.327E+02 0.207E+02 0.990E+02   0.375E+02 -.255E+02 -.103E+03   -.492E+01 0.497E+01 0.435E+01   -.354E-03 0.120E-03 0.129E-04
   -.749E+02 0.280E+02 0.963E+02   0.814E+02 -.311E+02 -.959E+02   -.678E+01 0.325E+01 -.457E+00   0.147E-04 -.755E-04 0.196E-03
   0.476E+02 0.544E+02 -.188E+03   -.523E+02 -.571E+02 0.194E+03   0.466E+01 0.264E+01 -.649E+01   -.695E-04 -.574E-04 -.512E-03
   0.275E+02 -.475E+02 0.164E+03   -.297E+02 0.547E+02 -.166E+03   0.234E+01 -.731E+01 0.185E+01   0.724E-04 -.113E-03 0.143E-03
   -.292E+02 0.712E+02 0.148E+03   0.291E+02 -.787E+02 -.148E+03   0.919E-01 0.772E+01 -.586E+00   0.696E-04 -.505E-04 0.124E-03
   -.610E+02 -.777E+02 0.116E+03   0.656E+02 0.842E+02 -.117E+03   -.469E+01 -.668E+01 0.105E+01   -.124E-03 -.265E-04 0.145E-03
   0.121E+03 -.104E+02 0.128E+03   -.129E+03 0.106E+02 -.128E+03   0.828E+01 -.202E+00 -.539E+00   -.119E-03 0.590E-04 0.217E-04
   0.375E+02 0.480E+01 0.712E+02   -.451E+02 -.392E+01 -.707E+02   0.779E+01 -.934E+00 -.611E+00   0.237E-04 0.136E-03 0.134E-03
   -.528E+02 -.440E+02 -.210E+03   0.559E+02 0.490E+02 0.216E+03   -.304E+01 -.501E+01 -.603E+01   -.117E-04 0.310E-03 0.139E-03
   0.445E+02 0.593E+02 0.774E+02   -.478E+02 -.654E+02 -.739E+02   0.328E+01 0.627E+01 -.354E+01   0.126E-03 0.171E-03 -.359E-04
   -.156E+02 -.346E+02 0.130E+03   0.159E+02 0.410E+02 -.133E+03   -.263E+00 -.677E+01 0.317E+01   0.682E-04 -.142E-03 0.296E-04
   0.192E+02 -.450E+02 0.181E+03   -.234E+02 0.507E+02 -.183E+03   0.441E+01 -.594E+01 0.227E+01   0.587E-04 0.344E-04 -.746E-04
   -.157E+01 -.364E+02 0.239E+03   0.210E+01 0.402E+02 -.246E+03   -.514E+00 -.386E+01 0.729E+01   0.398E-05 0.264E-04 -.265E-04
   0.438E+02 -.133E+02 0.192E+03   -.498E+02 0.167E+02 -.196E+03   0.618E+01 -.353E+01 0.405E+01   0.765E-04 -.234E-04 0.211E-04
   -.155E+01 0.500E+02 0.229E+03   0.904E+00 -.518E+02 -.237E+03   0.646E+00 0.182E+01 0.808E+01   0.535E-04 -.735E-04 -.217E-04
   0.653E+02 0.477E+01 -.671E+02   -.731E+02 -.501E+01 0.702E+02   0.772E+01 0.242E+00 -.304E+01   -.267E-03 -.255E-03 0.106E-03
   -.868E+01 -.721E+02 -.161E+03   0.102E+02 0.800E+02 0.164E+03   -.153E+01 -.788E+01 -.233E+01   0.208E-03 -.278E-03 -.240E-03
   0.169E+02 0.783E+02 -.105E+03   -.154E+02 -.863E+02 0.103E+03   -.144E+01 0.799E+01 0.115E+01   0.560E-03 -.376E-03 -.111E-03
   0.171E+02 0.173E+02 -.226E+01   -.225E+02 -.197E+02 0.672E+01   0.559E+01 0.252E+01 -.459E+01   0.149E-03 0.895E-04 -.146E-04
   0.273E+02 -.515E+02 0.549E+02   -.324E+02 0.559E+02 -.510E+02   0.525E+01 -.445E+01 -.402E+01   0.141E-03 0.445E-04 0.108E-03
   0.141E+02 -.269E+02 0.209E+03   -.162E+02 0.277E+02 -.217E+03   0.214E+01 -.795E+00 0.797E+01   -.242E-04 -.332E-04 0.487E-04
   -.764E+02 -.275E+02 0.199E+03   0.835E+02 0.285E+02 -.203E+03   -.723E+01 -.106E+01 0.394E+01   0.198E-04 0.111E-04 0.422E-05
   -.834E+02 -.365E+02 0.135E+03   0.903E+02 0.404E+02 -.135E+03   -.716E+01 -.403E+01 -.164E+00   0.622E-04 0.355E-04 -.502E-05
   -.102E+03 0.109E+02 0.155E+03   0.110E+03 -.129E+02 -.156E+03   -.796E+01 0.202E+01 0.105E+01   0.571E-04 -.138E-04 0.602E-04
   0.104E+01 -.696E+02 0.101E+03   0.258E+00 0.763E+02 -.972E+02   -.133E+01 -.693E+01 -.420E+01   0.758E-06 0.292E-04 -.474E-04
   -.332E+02 -.496E+02 0.218E+03   0.371E+02 0.540E+02 -.224E+03   -.406E+01 -.454E+01 0.558E+01   0.903E-04 -.263E-04 0.228E-04
   0.750E+02 0.218E+02 0.109E+03   -.809E+02 -.258E+02 -.112E+03   0.621E+01 0.437E+01 0.246E+01   -.622E-04 -.468E-04 -.411E-05
   0.512E+02 0.358E+02 -.167E+03   -.565E+02 -.405E+02 0.172E+03   0.531E+01 0.475E+01 -.423E+01   -.908E-05 0.395E-03 0.545E-04
   -.103E+02 -.729E+02 -.193E+03   0.122E+02 0.792E+02 0.198E+03   -.197E+01 -.628E+01 -.523E+01   -.146E-03 0.234E-03 -.708E-04
   -.443E+02 0.562E+02 -.179E+03   0.496E+02 -.614E+02 0.183E+03   -.532E+01 0.525E+01 -.379E+01   0.361E-04 0.108E-03 0.728E-04
   0.313E+02 -.797E+02 -.193E+03   -.316E+02 0.867E+02 0.198E+03   0.307E+00 -.704E+01 -.453E+01   0.653E-04 0.302E-03 -.749E-04
   -.336E+02 0.600E+02 -.160E+03   0.344E+02 -.646E+02 0.163E+03   -.812E+00 0.459E+01 -.321E+01   0.412E-04 -.599E-03 -.716E-04
   -.613E+02 -.258E+02 -.149E+03   0.647E+02 0.300E+02 0.150E+03   -.339E+01 -.422E+01 -.982E+00   0.105E-03 0.543E-03 -.611E-03
   -.417E+01 0.458E+02 -.173E+03   0.511E+01 -.499E+02 0.177E+03   -.951E+00 0.414E+01 -.394E+01   -.216E-04 0.622E-05 -.184E-03
   0.559E+02 -.513E+02 -.903E+02   -.573E+02 0.557E+02 0.869E+02   0.137E+01 -.442E+01 0.348E+01   0.654E-03 -.175E-03 -.355E-03
   -.611E+02 -.235E+02 -.142E+03   0.665E+02 0.235E+02 0.143E+03   -.550E+01 -.116E-01 -.910E+00   0.353E-04 0.874E-04 -.149E-03
   0.172E+02 -.692E+02 -.104E+03   -.182E+02 0.729E+02 0.100E+03   0.109E+01 -.366E+01 0.419E+01   0.224E-03 -.847E-04 -.323E-03
   0.269E+02 -.393E+02 -.161E+03   -.292E+02 0.411E+02 0.165E+03   0.237E+01 -.180E+01 -.453E+01   0.341E-04 0.127E-03 0.181E-06
   0.369E+02 0.246E+02 -.784E+02   -.380E+02 -.265E+02 0.733E+02   0.111E+01 0.192E+01 0.519E+01   -.147E-03 0.304E-03 -.158E-03
   0.112E+02 0.622E+02 -.159E+03   -.939E+01 -.665E+02 0.162E+03   -.191E+01 0.426E+01 -.306E+01   -.116E-03 0.149E-03 0.205E-03
   0.762E+02 -.116E+02 -.145E+03   -.809E+02 0.132E+02 0.148E+03   0.474E+01 -.168E+01 -.208E+01   0.120E-04 -.163E-04 -.147E-04
   -.161E+03 0.433E+02 0.348E+03   0.175E+03 -.547E+02 -.339E+03   -.141E+02 0.115E+02 -.956E+01   0.469E-03 -.137E-04 0.111E-02
[...]
   -.528E+02 -.131E+02 0.210E+03   0.522E+02 0.119E+02 -.212E+03   0.459E+00 0.725E+00 0.884E+00   0.718E-04 0.565E-05 0.133E-02
   0.551E+02 -.295E+02 -.139E+03   -.498E+02 0.282E+02 0.136E+03   -.531E+01 0.132E+01 0.305E+01   0.168E-02 -.529E-04 -.205E-03
   -.896E+02 -.242E+02 0.384E+03   0.897E+02 0.222E+02 -.386E+03   -.165E+00 0.201E+01 0.169E+01   0.314E-03 0.739E-04 0.352E-03
   -.509E+02 0.957E+02 -.272E+03   0.505E+02 -.960E+02 0.274E+03   0.430E+00 0.191E+00 -.174E+01   -.691E-03 -.104E-02 -.929E-03
   -.635E+01 0.300E+00 0.320E+02   0.704E+01 -.356E+01 -.343E+02   -.987E+00 0.967E+01 0.178E+01   -.480E-03 -.118E-02 -.436E-03
   -.285E+02 0.870E+02 0.459E+03   0.285E+02 -.854E+02 -.460E+03   -.267E-01 -.173E+01 0.152E+01   0.615E-03 -.250E-03 -.570E-03
   0.104E+03 -.108E+02 -.178E+02   -.102E+03 0.129E+02 0.182E+02   -.132E+01 -.238E+01 -.587E+00   -.435E-03 0.379E-03 -.794E-03
   0.110E+03 0.162E+02 0.146E+03   -.104E+03 -.896E+01 -.150E+03   -.282E+02 -.231E+02 0.853E+01   0.496E-03 0.514E-04 -.251E-03
   -.904E+01 0.103E+03 -.424E+03   0.106E+02 -.101E+03 0.423E+03   -.155E+01 -.167E+01 0.478E+00   0.589E-04 -.538E-03 -.114E-02
   -.336E+02 0.360E+02 0.132E+03   0.335E+02 -.367E+02 -.132E+03   -.195E+00 0.756E+00 -.105E+01   0.127E-02 -.280E-03 -.586E-03
   0.672E+02 -.232E+02 -.361E+03   -.679E+02 0.239E+02 0.362E+03   0.696E+00 -.679E+00 -.824E+00   -.695E-03 0.927E-03 -.434E-03
   0.541E+02 -.582E+02 -.322E+03   -.547E+02 0.534E+02 0.322E+03   0.706E+00 0.481E+01 0.121E+00   0.250E-03 -.819E-06 -.707E-03
   0.631E+02 0.676E+02 -.176E+03   -.593E+02 -.644E+02 0.180E+03   -.385E+01 -.324E+01 -.370E+01   0.987E-03 0.703E-03 0.237E-03
   -.194E+02 0.670E+02 -.765E+03   0.215E+02 -.691E+02 0.765E+03   -.210E+01 0.215E+01 -.492E+00   0.227E-02 0.618E-02 -.349E-02
   0.286E+03 -.224E+03 -.143E+03   -.423E-12 0.121E-11 0.227E-12   -.286E+03 0.224E+03 0.144E+03   0.142E-01 0.273E-01 -.542E-01

 POSITION                                       TOTAL-FORCE (eV/Angst)
     12.11305      8.55247     19.95877         0.000357     -0.011620     -0.006147
      9.62608      9.65671     20.75310        -0.016015      0.002356      0.001788
      8.66162      9.42030     19.79139        -0.001585      0.003100      0.000412
     10.17686     11.03016     21.06344         0.012523     -0.004014      0.001296
      7.69683      8.25898     19.82256        -0.002639      0.003269     -0.002595
     17.80706      1.86120     17.50459         0.002345      0.002205      0.000355
     21.68887      5.04983      9.57948         0.106555      0.075107     -0.023116
     18.57311      3.75615     10.03977         0.038993      0.114094      0.050962
     22.81522     17.09936      8.74523         0.110268      0.057958      0.036226
     14.64921     17.45932     10.08748         0.055653     -0.004928     -0.053285
     19.20987     18.03075      9.91976         0.122399      0.025092      0.004570
     17.55831      2.55833     12.31361        -0.110833     -0.222826     -0.130442
     21.44528      4.52008     13.61301         0.001037     -0.001595      0.001237
     13.66032      5.51363      8.22435        -0.100112     -0.128408      0.052743
     20.80593      6.04512     16.53263        -0.016723      0.019723     -0.006601
     13.84028      6.53144     16.51924         0.004409     -0.012223     -0.000423
     13.88727     15.79517     15.54439         0.007474     -0.011679      0.000579
      0.48740      6.00033     17.80588         0.004923     -0.001532     -0.005922
     21.89589      7.60212     12.20778        -0.077845      0.132114      0.071882
     17.46807      9.60991     11.35790        -0.322617      0.163390     -0.034642
     18.62999      6.90626     17.02479        -0.003106     -0.002196      0.006276
     13.83846     10.30524     10.16285         0.098738     -0.185348      0.072216
     16.81947     11.70510     10.30871        -0.029791      0.240032     -0.012580
     19.69248      9.82944     11.28016        -0.107400     -0.102635      0.016354
      0.11154     10.94157      9.61829         0.114299     -0.008908     -0.024240
     19.39295     12.90878     12.57986         0.224460     -0.037896     -0.047904
     20.49053     10.86216     19.40595        -0.002372     -0.012169     -0.006888
     12.17365     17.85965     11.33680         0.013906      0.126460     -0.096671
      5.22293     17.76162     10.57067        -0.011308     -0.356098      0.124860
      5.06559      4.31016      8.58199         0.179274     -0.200219      0.078165
      3.68730      5.97650      7.50000         0.014066     -0.082669      0.154190
      7.99605      2.81941      8.89229         0.084749     -0.089022      0.072418
      5.21407      0.82921      8.67630         0.002928      0.020343      0.156213
     11.96377     14.97769     14.69732         0.001886     -0.005632      0.000623
      9.45124      4.53284     17.59567        -0.004228     -0.020736     -0.008398
      5.68126      1.69657     16.10599         0.000331      0.003933      0.003496
      7.38348      8.82752     11.89413         0.232740      0.095750     -0.166776
      9.57419      7.95042     10.90633         0.121126     -0.108868     -0.114176
      9.32939     14.37220     10.45190         0.058863     -0.001538      0.131169
      5.71709     11.87720      7.91250        -0.107489     -0.017513      0.055408
      7.29827      7.58330      9.92689        -0.164419     -0.090628     -0.005484
      9.49268     10.58787      9.10862        -0.110844      0.039189      0.003488
      3.26254      8.84269      9.46105        -0.024599     -0.205405     -0.116175
     13.88920     12.64839      9.47364        -0.125946     -0.095831      0.172607
     10.98006     15.61013     11.93160         0.314137      0.330762      0.165119
      2.54966      6.04800     16.48318         0.002480     -0.000013     -0.001953
      1.67845     12.07264     17.34386        -0.001428      0.002731      0.002634
      5.87447      6.45204     18.03734        -0.004381     -0.003124      0.004600
      5.71501     14.78052     17.97366        -0.000307     -0.017323     -0.012619
     12.27521      7.67269     20.58820        -0.003487     -0.013600      0.003041
     12.78523      9.40070     20.15981        -0.000943     -0.013838      0.007831
      9.80142      8.87775     21.50044         0.011769     -0.006001     -0.000082
      8.39576     10.25547     19.13554         0.002652      0.015832      0.005239
     11.25907     11.02095     21.24547         0.008704     -0.009412      0.020917
      9.95486     11.73702     20.25528         0.030974     -0.006448     -0.005086
      9.68773     11.38469     21.98822        -0.001948      0.009792     -0.014342
      7.48262      7.88849     18.81329         0.005785      0.012962     -0.002266
      8.07703      7.43150     20.43589         0.004232      0.001588     -0.007444
      6.74301      8.61387     20.25046         0.004767      0.006363      0.000081
      8.63740     11.74900     11.80180        -0.232925      0.113302     -0.226325
[...]
      5.71814      6.71222     11.31648         0.012530     -0.141645     -0.081987
     15.41693      5.98005     12.10687        -0.163990     -0.441350     -0.800721
     10.77186      5.77987     14.22122         0.002912     -0.004039      0.009262
      7.89661     10.69049     10.72869        -0.120313     -0.069412     -0.004628
     18.79485      8.63897     15.58288        -0.002352     -0.005462      0.007867
      1.62029     16.28844     12.91761        -0.328302      6.412023     -0.527960
      4.96103      2.61769     10.04353        -0.096938     -0.028904      0.111802
      1.83153      8.95162     13.29887         0.026573     -0.280394     -0.204019
     13.05344     15.44546     12.76235       -22.320122    -15.872924      4.748459
     16.80696     10.60007     16.38876        -0.006075     -0.004332      0.006162
      6.71066      3.80730     12.34244        -0.256236      0.036791     -0.684627
      2.06746     11.33440     15.25785         0.001828     -0.000711     -0.010395
      8.23200      0.36576     15.62146        -0.001725      0.003648     -0.002337
     11.36049      8.74484     15.35780         0.005180     -0.006135      0.001240
     10.81540      8.73581     18.55879        -0.000593     -0.004862     -0.012606
    total drift:                                0.083714      0.192461      0.474314

  FREE ENERGIE OF THE ION-ELECTRON SYSTEM (eV)
  free  energy   TOTEN  =     -1903.24021647 eV

  energy  without entropy=    -1903.24021647  energy(sigma->0) =    -1903.24021647

 d Force = 0.4186876E-05[-0.427E-05, 0.126E-04]  d Energy = 0.1591586E-05 0.260E-05
 d Force = 0.1391741E+00[ 0.139E+00, 0.139E+00]  d Ewald  = 0.1391741E+00-0.161E-07

 stress matrix after NEB project (eV)
    -32.96653     -0.01912      0.35607
     -0.01912    -33.53522     -0.41534
      0.35607     -0.41534    -25.34692
  FORCES: max atom, RMS     0.041333    0.009310
  FORCE total and by dimension    0.155510    0.034675
  Stress total and by dimension   53.427233   33.535221

 reached required accuracy - stopping structural energy minimisation