 vasp.5.4.4.18Apr17-6-g9f103f2a35 (build Oct 20 2021 08:33:53) complex
 executed on             LinuxGNU date 2024.03.24  22:20:12

 INCAR:
 POTCAR:    PAW_PBE C 08Apr2002
 POTCAR:    PAW_PBE H 15Jun2001
 POTCAR:    PAW_PBE O 08Apr2002
 POTCAR:    PAW_PBE Si 05Jan2001
 POTCAR:    PAW_PBE W 08Apr2002
 POTCAR:    PAW_PBE C 08Apr2002
   VRHFIN =C: s2p2

   TITEL  = PAW_PBE C 08Apr2002
   POMASS =   12.011; ZVAL   =    4.000    mass and valenz
   ENMAX  =  400.000; ENMIN  =  300.000 eV

 POTCAR:    PAW_PBE H 15Jun2001
   VRHFIN =H: ultrasoft test

   TITEL  = PAW_PBE H 15Jun2001
   POMASS =    1.000; ZVAL   =    1.000    mass and valenz
   ENMAX  =  250.000; ENMIN  =  200.000 eV

 POTCAR:    PAW_PBE O 08Apr2002
   VRHFIN =O: s2p4

[...]

 POTCAR:    PAW_PBE Si 05Jan2001
   VRHFIN =Si: s2p2

   TITEL  = PAW_PBE Si 05Jan2001
   POMASS =   28.085; ZVAL   =    4.000    mass and valenz
   ENMAX  =  245.345; ENMIN  =  184.009 eV

 POTCAR:    PAW_PBE W 08Apr2002
   VRHFIN =W : 6s5d

   TITEL  = PAW_PBE W 08Apr2002
   POMASS =  183.850; ZVAL   =    6.000    mass and valenz
   ENMAX  =  223.057; ENMIN  =  167.293 eV

 Optimization of the real space projectors (new method)

 maximal supplied QI-value         = 25.13
 optimisation between [QCUT,QGAM] = [ 11.31, 22.87] = [ 35.82,146.48] Ry
 Optimized for a Real-space Cutoff    1.00 Angstroem

   l    n(q)    QCUT    max X(q) W(low)/X(q) W(high)/X(q)  e(spline)
   0      7    11.310   115.676    0.43E-03    0.13E-02    0.19E-06
   0      7    11.310    87.132    0.43E-03    0.13E-02    0.18E-06
   1      6    11.310     4.429    0.42E-03    0.74E-03    0.11E-06
   1      6    11.310     2.733    0.34E-03    0.55E-03    0.92E-07
 Optimization of the real space projectors (new method)

[...]

   l    n(q)    QCUT    max X(q) W(low)/X(q) W(high)/X(q)  e(spline)
   0      8    11.310   159.560    0.27E-03    0.30E-03    0.39E-07
   0      8    11.310   115.863    0.27E-03    0.30E-03    0.38E-07
   1      7    11.310    88.339    0.28E-03    0.28E-03    0.77E-07
   1      7    11.310    48.592    0.27E-03    0.27E-03    0.74E-07
 Optimization of the real space projectors (new method)

 maximal supplied QI-value         = 13.61
 optimisation between [QCUT,QGAM] = [ 11.43, 22.86] = [ 36.58,146.31] Ry
 Optimized for a Real-space Cutoff    1.56 Angstroem

   l    n(q)    QCUT    max X(q) W(low)/X(q) W(high)/X(q)  e(spline)
   2     10    11.429   130.855    0.22E-03    0.64E-03    0.11E-05
   2     10    11.429   114.007    0.22E-03    0.64E-03    0.11E-05
   0     11    11.429    84.709    0.39E-04    0.67E-04    0.23E-06
   0     11    11.429    49.163    0.35E-04    0.62E-04    0.21E-06
   1     10    11.429    15.765    0.84E-04    0.15E-03    0.24E-06
   1     10    11.429    10.638    0.58E-04    0.12E-03    0.19E-06

  PAW_PBE C 08Apr2002                   :
  PAW_PBE H 15Jun2001                   :
  PAW_PBE O 08Apr2002                   :
  PAW_PBE Si 05Jan2001                  :
  PAW_PBE W 08Apr2002                   :

 POSCAR:  C  H  O Si  W
  positions in direct lattice
  velocities in cartesian coordinates
 exchange correlation table for  LEXCH =        9
   RHO(1)=    0.500       N(1)  =     2000
   RHO(2)=  100.500       N(2)  =     4000

 VTST: version 3.2, (02/03/18)

 CHAIN: initializing optimizer

 OPT: Using VASP QUASI-newton optimizer
 CHAIN: Read ICHAIN            0

 POSCAR:  C  H  O Si  W
  positions in direct lattice
  velocities in cartesian coordinates

 ion  position               nearest neighbor table
   1  0.553  0.465  0.795-  49 1.10   2 1.36   3 1.50
   2  0.534  0.513  0.760-   1 1.36   4 1.53 276 2.12
   3  0.555  0.382  0.793-  52 1.10  51 1.10  53 1.11   1 1.50
   4  0.541  0.596  0.768-  56 1.10  55 1.10  54 1.10   2 1.53
   5  0.760  0.104  0.651- 131 0.97
   6  0.926  0.279  0.356-  79 0.98
   7  0.793  0.207  0.373- 114 0.97
   8  0.975  0.944  0.325- 123 0.97
   9  0.626  0.963  0.375- 125 0.98
  10  0.821  0.995  0.369- 143 0.97
  11  0.750  0.141  0.458- 181 0.98
  12  0.915  0.249  0.509- 186 0.97
  13  0.583  0.304  0.306- 191 0.97
  14  0.891  0.335  0.616-  97 0.98
  15  0.589  0.359  0.615- 142 0.97
  16  0.593  0.871  0.578- 184 0.99
  17  0.034  0.338  0.652- 190 0.97
  18  0.935  0.420  0.454- 179 0.98
  19  0.746  0.530  0.422-  93 1.00
  20  0.797  0.382  0.634- 171 0.97
  21  0.591  0.569  0.378- 105 0.99
  22  0.718  0.646  0.383- 128 0.99
  23  0.841  0.542  0.420- 134 0.98
  24  0.005  0.604  0.358- 139 0.97
  25  0.828  0.712  0.468- 180 0.99
  26  0.877  0.599  0.721-  59 0.97
  27  0.520  0.986  0.422- 141 0.99
  28  0.223  0.980  0.393- 182 1.00
  29  0.216  0.238  0.319- 197 0.99
  30  0.158  0.330  0.279- 188 0.97
  31  0.342  0.156  0.331- 189 0.98
  32  0.223  0.046  0.323- 196 0.97
  33  0.511  0.824  0.547- 199 0.97
  34  0.380  0.242  0.647-  84 0.97
  35  0.244  0.093  0.599- 135 0.98
  36  0.315  0.487  0.442-  58 0.99
  37  0.409  0.439  0.406- 147 0.98
  38  0.398  0.793  0.389- 185 0.97
  39  0.244  0.655  0.294- 193 0.97
  40  0.312  0.418  0.369- 194 0.98
  41  0.405  0.584  0.339- 195 0.97
  42  0.139  0.488  0.352- 187 0.98
  43  0.593  0.698  0.352-  88 0.97
  44  0.469  0.861  0.444- 198 0.99
  45  0.122  0.323  0.612- 107 0.97
  46  0.073  0.665  0.646- 138 0.97
  47  0.242  0.385  0.683- 183 0.97
  48  0.245  0.815  0.669- 192 0.97
  49  0.570  0.488  0.830-   1 1.10
  50  0.560  0.443  0.695- 276 1.70
  51  0.540  0.357  0.828-   3 1.10
  52  0.530  0.359  0.762-   3 1.10
  53  0.600  0.364  0.788-   3 1.11
  54  0.500  0.621  0.778-   4 1.10
  55  0.572  0.607  0.797-   4 1.10
  56  0.555  0.624  0.734-   4 1.10
  57  0.369  0.648  0.439- 230 1.66 265 1.68
  58  0.347  0.504  0.420-  36 0.99 265 1.67
  59  0.861  0.566  0.697-  26 0.97 236 1.64
  60  0.349  0.957  0.530- 241 1.68 274 1.69
[...]
 218  0.214  0.476  0.510- 178 1.61 177 1.63 137 1.66 174 1.66 229 3.10 262 3.14
 219  0.915  0.756  0.496- 102 1.65 180 1.65  86 1.65  91 1.66 232 2.99 240 3.03
 220  0.521  0.110  0.426- 113 1.64  64 1.65 141 1.66 121 1.67 251 3.08 234 3.12
 221  0.419  0.168  0.589-  84 1.64 201 1.66 101 1.68 161 1.69 274 3.14 261 3.14
 222  0.083  0.139  0.407-  63 1.64 144 1.65  89 1.65 157 1.66 215 3.11 214 3.13 268 3.14
 223  0.702  0.045  0.487-  96 1.64 165 1.65  62 1.65 181 1.66 234 3.09 224 3.10 258 3.15
 224  0.665  0.898  0.437-  95 1.53 165 1.66 125 1.66 156 1.67 270 2.83 257 3.06 223 3.10
 225  0.650  0.504  0.430- 105 1.65 163 1.65  93 1.67  99 1.68 233 3.06
 226  0.198  0.912  0.464- 136 1.50 182 1.64 159 1.66 115 1.67 244 3.01 241 3.06 267 3.07
 227  0.214  0.366  0.604-  83 1.63 178 1.64 107 1.64 183 1.65
 228  0.673  0.813  0.594- 184 1.62 116 1.64  98 1.68 206 1.71 255 2.90
 229  0.217  0.641  0.538- 169 1.63 176 1.63 202 1.65 137 1.65 244 3.09 218 3.10 273 3.12
 230  0.369  0.735  0.459-  73 1.65  57 1.66 104 1.67 185 1.68
 231  0.797  0.888  0.596- 140 1.66  98 1.66 109 1.67 205 1.68 240 2.86 232 3.00
 232  0.880  0.912  0.512-  72 1.60  91 1.62 109 1.65 117 1.66 219 2.99 231 3.00 256 3.05 247 3.13

 233  0.575  0.573  0.511-  99 1.58 100 1.62 166 1.63 133 1.65 243 3.01 225 3.06 275 3.11
 234  0.590  0.115  0.525-  62 1.60 121 1.61 158 1.62 148 1.65 261 2.85 223 3.09 245 3.12 220 3.12

[...]

 272  0.287  0.210  0.459- 173 1.63 122 1.63  67 1.66 152 1.67 250 3.03 268 3.12
 273  0.088  0.626  0.568- 162 1.63 138 1.63 108 1.64 169 1.65 269 3.10 229 3.12 249 3.15
 274  0.354  0.017  0.578- 161 1.63  69 1.66  60 1.69 208 1.69 241 2.38 260 2.75 221 3.14
 275  0.486  0.480  0.570- 133 1.64  77 1.65 127 1.67  85 1.68 252 2.98 233 3.11 276 3.30
 276  0.494  0.483  0.692-  50 1.70 210 1.71 124 1.96  77 1.98   2 2.12 252 3.19 275 3.30

  LATTYP: Found a simple orthorhombic cell.
 ALAT       =    18.1212369514
 B/A-ratio  =     1.2919258579
 C/A-ratio  =     1.4835282260

  Lattice vectors:

 A1 = (   0.0000000000, -18.1212369514,   0.0000000000)
 A2 = ( -23.4112945954,   0.0000000000,   0.0000000000)
 A3 = (   0.0000000000,   0.0000000000, -26.8833665073)

Analysis of symmetry for initial positions (statically):
 Subroutine PRICEL returns:
 Original cell was already a primitive cell.

 Routine SETGRP: Setting up the symmetry group for a
 simple orthorhombic supercell.

 Subroutine GETGRP returns: Found  1 space group operations
 (whereof  1 operations were pure point group operations)
 out of a pool of  8 trial point group operations.

The static configuration has the point symmetry C_1 .

Analysis of symmetry for dynamics (positions and initial velocities):
 Subroutine PRICEL returns:
 Original cell was already a primitive cell.

[...]

The dynamic configuration has the point symmetry C_1 .

Analysis of constrained symmetry for selective dynamics:
 Subroutine PRICEL returns:
 Original cell was already a primitive cell.

 Routine SETGRP: Setting up the symmetry group for a
 simple orthorhombic supercell.

 Subroutine GETGRP returns: Found  1 space group operations
 (whereof  1 operations were pure point group operations)
 out of a pool of  8 trial point group operations.

The constrained configuration has the point symmetry C_1 .

 Subroutine INISYM returns: Found  1 space group operations
 (whereof  1 operations are pure point group operations),
 and found     1 'primitive' translations

 KPOINTS: KPOINTS created by Atomic Simulation Env

Automatic generation of k-mesh.
Space group operators:
 irot       det(A)        alpha          n_x          n_y          n_z        tau_x        tau_y        tau_z
    1     1.000000     0.000000     1.000000     0.000000     0.000000     0.000000     0.000000     0.000000

 Subroutine IBZKPT returns following result:

 Found      5 irreducible k-points:

 Following reciprocal coordinates:
            Coordinates               Weight
  0.000000  0.000000  0.000000      1.000000
  0.333333  0.000000  0.000000      2.000000
  0.000000  0.333333  0.000000      2.000000
  0.333333  0.333333  0.000000      2.000000
 -0.333333  0.333333  0.000000      2.000000

 Following cartesian coordinates:
            Coordinates               Weight
  0.000000  0.000000  0.000000      1.000000
  0.014238  0.000000  0.000000      2.000000
  0.000000  0.018395  0.000000      2.000000
  0.014238  0.018395  0.000000      2.000000
 -0.014238  0.018395  0.000000      2.000000

 SYSTEM =  unknown system
 POSCAR =   C  H  O Si  W

 Startparameter for this run:
   NWRITE =      2    write-flag & timer
   PREC   = normal    normal or accurate (medium, high low for compatibility)
   ISTART =      0    job   : 0-new  1-cont  2-samecut
   ICHARG =      2    charge: 1-file 2-atom 10-const
   ISPIN  =      1    spin polarized calculation?
   LNONCOLLINEAR =      F non collinear calculations
   LSORBIT =      F    spin-orbit coupling
   INIWAV =      1    electr: 0-lowe 1-rand  2-diag
   LASPH  =      T    aspherical Exc in radial PAW
   METAGGA=      F    non-selfconsistent MetaGGA calc.

 Electronic Relaxation 1
   ENCUT  =  500.0 eV  36.75 Ry    6.06 a.u.  42.68 33.04 49.01*2*pi/ulx,y,z
   ENINI  =  500.0     initial cutoff
   ENAUG  =  644.9 eV  augmentation charge cutoff
   NELM   =     60;   NELMIN=  2; NELMDL=  0     # of ELM steps
[...]
   -.415E+02 0.156E+03 -.474E+03   0.407E+02 -.157E+03 0.473E+03   0.787E+00 0.109E+01 0.821E+00   0.774E-05 -.273E-03 -.869E-03
   -.148E+02 -.130E+03 -.550E+03   0.152E+02 0.131E+03 0.550E+03   -.416E+00 -.103E+01 -.477E+00   0.199E-03 0.487E-03 -.130E-02
   0.389E+02 0.526E+01 -.215E+03   -.425E+02 -.773E+01 0.222E+03   0.364E+01 0.249E+01 -.716E+01   0.194E-04 -.106E-03 -.180E-03
   0.964E+02 0.274E+02 0.131E+03   -.104E+03 -.309E+02 -.130E+03   0.737E+01 0.362E+01 -.921E+00   -.137E-04 0.243E-04 -.353E-04
   0.275E+02 0.736E+02 0.168E+03   -.298E+02 -.809E+02 -.170E+03   0.240E+01 0.751E+01 0.249E+01   0.701E-04 -.234E-04 -.510E-04
   0.833E+02 0.519E+02 0.178E+03   -.906E+02 -.548E+02 -.181E+03   0.733E+01 0.292E+01 0.253E+01   -.348E-04 -.619E-04 -.196E-03
   0.482E+02 -.601E+02 0.163E+03   -.538E+02 0.658E+02 -.164E+03   0.572E+01 -.579E+01 0.116E+01   -.151E-04 0.211E-04 -.115E-03
   0.930E+02 0.257E+02 0.148E+03   -.101E+03 -.271E+02 -.149E+03   0.814E+01 0.144E+01 0.300E+00   -.292E-05 0.122E-04 -.139E-03
   -.668E+01 -.674E+02 0.388E+02   0.896E+01 0.744E+02 -.363E+02   -.236E+01 -.718E+01 -.261E+01   0.380E-04 0.114E-04 0.926E-04
   0.243E+02 -.876E+02 -.116E+02   -.244E+02 0.960E+02 0.119E+02   0.176E+00 -.840E+01 -.216E+00   0.427E-04 0.105E-03 0.130E-03
   -.374E+02 -.788E+02 0.194E+03   0.395E+02 0.859E+02 -.197E+03   -.220E+01 -.716E+01 0.348E+01   -.339E-04 0.260E-04 -.205E-03
   0.544E+02 -.445E+02 -.847E+02   -.600E+02 0.495E+02 0.813E+02   0.562E+01 -.501E+01 0.341E+01   0.100E-03 -.296E-04 -.213E-03
   0.667E+01 -.520E+02 -.137E+03   -.100E+02 0.592E+02 0.140E+03   0.337E+01 -.718E+01 -.254E+01   -.239E-04 -.150E-03 -.182E-03
   0.604E+02 -.125E+02 -.714E+02   -.674E+02 0.109E+02 0.682E+02   0.695E+01 0.152E+01 0.326E+01   -.575E-04 0.388E-04 0.180E-03
   -.244E+01 -.843E+02 -.190E+03   0.254E+01 0.914E+02 0.194E+03   -.114E+00 -.714E+01 -.437E+01   0.467E-04 -.797E-04 -.314E-03
   -.343E+02 0.208E+02 0.984E+02   0.391E+02 -.256E+02 -.103E+03   -.492E+01 0.497E+01 0.435E+01   0.463E-04 0.349E-04 0.142E-03
   -.752E+02 0.279E+02 0.964E+02   0.816E+02 -.310E+02 -.960E+02   -.678E+01 0.325E+01 -.455E+00   0.270E-03 -.116E-03 0.463E-05
   0.425E+02 0.537E+02 -.189E+03   -.469E+02 -.562E+02 0.195E+03   0.444E+01 0.251E+01 -.669E+01   0.779E-04 -.290E-05 -.340E-03
   0.281E+02 -.477E+02 0.164E+03   -.303E+02 0.549E+02 -.166E+03   0.234E+01 -.731E+01 0.185E+01   -.148E-03 0.512E-04 -.211E-03
   -.292E+02 0.711E+02 0.148E+03   0.291E+02 -.786E+02 -.148E+03   0.916E-01 0.772E+01 -.584E+00   0.965E-04 0.161E-04 -.219E-03
   -.617E+02 -.776E+02 0.116E+03   0.663E+02 0.842E+02 -.117E+03   -.469E+01 -.668E+01 0.105E+01   0.267E-03 -.951E-04 0.206E-04
   0.120E+03 -.102E+02 0.127E+03   -.129E+03 0.104E+02 -.127E+03   0.828E+01 -.202E+00 -.538E+00   -.128E-03 0.116E-04 0.243E-04
   0.368E+02 0.484E+01 0.713E+02   -.444E+02 -.396E+01 -.708E+02   0.779E+01 -.934E+00 -.610E+00   0.201E-03 -.262E-04 0.359E-04
   -.601E+02 -.437E+02 -.208E+03   0.636E+02 0.487E+02 0.214E+03   -.343E+01 -.496E+01 -.589E+01   0.521E-04 0.126E-03 -.162E-03
   0.453E+02 0.594E+02 0.774E+02   -.485E+02 -.655E+02 -.740E+02   0.328E+01 0.627E+01 -.354E+01   -.421E-04 -.380E-04 0.385E-05
   -.155E+02 -.347E+02 0.129E+03   0.158E+02 0.411E+02 -.132E+03   -.263E+00 -.677E+01 0.317E+01   0.210E-04 0.175E-04 -.172E-03
   0.192E+02 -.452E+02 0.180E+03   -.235E+02 0.510E+02 -.182E+03   0.441E+01 -.594E+01 0.228E+01   0.194E-04 -.554E-04 -.167E-03
   -.180E+01 -.366E+02 0.238E+03   0.232E+01 0.403E+02 -.245E+03   -.515E+00 -.386E+01 0.729E+01   0.102E-04 -.941E-04 -.155E-03
   0.443E+02 -.135E+02 0.191E+03   -.504E+02 0.169E+02 -.195E+03   0.618E+01 -.354E+01 0.405E+01   -.233E-04 -.255E-04 -.194E-03
   -.147E+01 0.498E+02 0.228E+03   0.832E+00 -.517E+02 -.236E+03   0.646E+00 0.182E+01 0.809E+01   0.726E-05 -.232E-04 -.248E-03
   0.672E+02 0.102E+02 -.665E+02   -.749E+02 -.107E+02 0.695E+02   0.769E+01 0.566E+00 -.301E+01   -.840E-04 0.714E-05 0.217E-03
   0.478E+02 -.806E+02 -.149E+03   -.513E+02 0.881E+02 0.150E+03   0.357E+01 -.756E+01 -.946E+00   0.448E-04 -.646E-04 -.337E-03
   0.139E+02 0.769E+02 -.105E+03   -.122E+02 -.848E+02 0.104E+03   -.168E+01 0.792E+01 0.123E+01   0.326E-04 0.836E-04 0.168E-04
   0.178E+02 0.171E+02 -.508E+01   -.232E+02 -.195E+02 0.952E+01   0.559E+01 0.252E+01 -.459E+01   0.702E-04 -.653E-04 0.232E-03
   0.288E+02 -.517E+02 0.534E+02   -.339E+02 0.561E+02 -.495E+02   0.525E+01 -.445E+01 -.402E+01   -.614E-04 -.184E-04 0.124E-03
   0.148E+02 -.264E+02 0.208E+03   -.169E+02 0.273E+02 -.216E+03   0.214E+01 -.794E+00 0.797E+01   0.235E-04 0.155E-04 -.343E-04
   -.764E+02 -.273E+02 0.198E+03   0.835E+02 0.284E+02 -.202E+03   -.723E+01 -.106E+01 0.394E+01   0.155E-03 0.851E-04 -.241E-03
   -.828E+02 -.367E+02 0.134E+03   0.898E+02 0.406E+02 -.134E+03   -.716E+01 -.403E+01 -.162E+00   0.669E-04 -.367E-04 0.314E-04
   -.102E+03 0.109E+02 0.154E+03   0.109E+03 -.129E+02 -.155E+03   -.796E+01 0.202E+01 0.105E+01   0.211E-04 0.920E-05 -.958E-04
   0.576E+00 -.695E+02 0.100E+03   0.721E+00 0.762E+02 -.959E+02   -.133E+01 -.693E+01 -.420E+01   -.634E-04 -.679E-04 0.142E-04
   -.326E+02 -.496E+02 0.218E+03   0.365E+02 0.540E+02 -.224E+03   -.406E+01 -.454E+01 0.559E+01   -.921E-04 0.116E-03 -.300E-03
   0.761E+02 0.226E+02 0.109E+03   -.820E+02 -.267E+02 -.111E+03   0.621E+01 0.436E+01 0.246E+01   -.607E-04 -.114E-04 0.554E-04
   0.498E+02 0.519E+02 -.109E+03   -.550E+02 -.581E+02 0.107E+03   0.523E+01 0.627E+01 0.174E+01   -.186E-04 0.748E-04 -.782E-04
   -.156E+02 -.700E+02 -.195E+03   0.178E+02 0.762E+02 0.200E+03   -.217E+01 -.613E+01 -.534E+01   0.248E-04 -.191E-04 -.136E-03
   0.177E+02 0.189E+02 -.225E+03   -.195E+02 -.214E+02 0.233E+03   0.178E+01 0.254E+01 -.781E+01   -.226E-04 0.322E-05 -.399E-03
   0.279E+02 -.758E+02 -.196E+03   -.281E+02 0.828E+02 0.201E+03   0.178E+00 -.698E+01 -.468E+01   0.458E-05 -.338E-04 -.119E-03
   -.302E+02 -.158E+02 -.161E+03   0.322E+02 0.180E+02 0.165E+03   -.203E+01 -.221E+01 -.469E+01   0.774E-04 0.515E-04 -.526E-04
   -.482E+02 0.369E+02 -.122E+03   0.506E+02 -.379E+02 0.122E+03   -.236E+01 0.107E+01 -.131E+00   0.142E-03 -.960E-04 -.383E-03
   0.139E+02 0.455E+02 -.148E+03   -.156E+02 -.477E+02 0.153E+03   0.171E+01 0.227E+01 -.466E+01   0.306E-04 -.900E-04 -.841E-04
   0.191E+02 0.585E+02 -.896E+02   -.221E+02 -.608E+02 0.855E+02   0.307E+01 0.220E+01 0.425E+01   -.363E-04 -.804E-04 -.312E-03
   -.668E+02 0.426E+02 -.106E+03   0.718E+02 -.442E+02 0.106E+03   -.506E+01 0.161E+01 0.687E+00   0.272E-04 -.633E-04 -.194E-03
   0.552E+02 -.470E+02 -.147E+03   -.599E+02 0.493E+02 0.149E+03   0.477E+01 -.230E+01 -.140E+01   0.217E-04 0.116E-03 -.304E-03
   -.431E+02 -.336E+02 -.160E+03   0.467E+02 0.346E+02 0.164E+03   -.366E+01 -.103E+01 -.393E+01   0.420E-04 0.107E-03 -.279E-03
   -.240E+02 -.481E+02 -.109E+03   0.258E+02 0.508E+02 0.105E+03   -.169E+01 -.267E+01 0.458E+01   0.480E-04 0.155E-03 -.348E-03
   -.155E+03 0.467E+02 0.335E+03   0.169E+03 -.581E+02 -.325E+03   -.142E+02 0.115E+02 -.960E+01   0.378E-03 -.175E-03 0.102E-02
   -.175E+03 0.413E+02 0.382E+03   0.203E+03 -.570E+02 -.392E+03   -.279E+02 0.163E+02 0.956E+01   0.341E-03 -.402E-03 0.116E-02
   -.182E+03 0.144E+03 -.946E+03   0.179E+03 -.183E+03 0.947E+03   0.325E+01 0.391E+02 -.947E+00   0.377E-05 0.469E-03 -.169E-02
   -.311E+02 0.244E+02 0.863E+02   0.537E+02 -.337E+02 -.116E+03   -.226E+02 0.942E+01 0.299E+02   0.557E-03 -.250E-03 0.903E-03
[...]
   -.519E+02 -.127E+02 0.212E+03   0.513E+02 0.115E+02 -.214E+03   0.459E+00 0.742E+00 0.891E+00   0.144E-03 -.512E-03 0.654E-03
   0.712E+02 -.325E+02 -.152E+03   -.656E+02 0.313E+02 0.148E+03   -.552E+01 0.127E+01 0.335E+01   -.426E-03 -.144E-05 0.654E-03
   -.867E+02 -.233E+02 0.376E+03   0.868E+02 0.213E+02 -.378E+03   -.180E+00 0.199E+01 0.171E+01   0.366E-03 -.129E-03 0.398E-03
   -.583E+02 0.958E+02 -.268E+03   0.579E+02 -.961E+02 0.270E+03   0.363E+00 0.242E+00 -.166E+01   0.392E-03 -.404E-03 -.435E-04
   -.103E+02 0.132E+01 0.283E+02   0.110E+02 -.449E+01 -.306E+02   -.988E+00 0.961E+01 0.182E+01   -.139E-03 -.220E-03 0.458E-03
   -.281E+02 0.854E+02 0.454E+03   0.280E+02 -.838E+02 -.456E+03   -.426E-01 -.174E+01 0.154E+01   0.480E-04 0.145E-04 -.510E-03
   0.942E+02 -.515E+01 -.287E+02   -.928E+02 0.737E+01 0.290E+02   -.135E+01 -.236E+01 -.614E+00   -.351E-03 -.292E-03 0.644E-03
   0.115E+03 0.187E+02 0.146E+03   -.109E+03 -.115E+02 -.150E+03   -.283E+02 -.231E+02 0.858E+01   -.405E-03 0.181E-03 0.575E-03
   -.160E+02 0.982E+02 -.410E+03   0.177E+02 -.968E+02 0.410E+03   -.168E+01 -.151E+01 0.377E+00   0.162E-05 -.450E-04 0.219E-03
   -.297E+02 0.314E+02 0.125E+03   0.297E+02 -.322E+02 -.125E+03   -.230E+00 0.853E+00 -.105E+01   0.150E-03 0.390E-03 0.593E-03
   0.569E+02 -.176E+02 -.367E+03   -.575E+02 0.184E+02 0.368E+03   0.554E+00 -.770E+00 -.894E+00   -.725E-04 -.220E-03 0.165E-03
   0.558E+02 -.578E+02 -.315E+03   -.570E+02 0.533E+02 0.315E+03   0.119E+01 0.449E+01 0.167E+00   0.285E-03 0.114E-03 0.354E-03
   0.105E+03 0.596E+02 -.187E+03   -.999E+02 -.571E+02 0.190E+03   -.477E+01 -.248E+01 -.280E+01   -.731E-03 -.328E-03 -.150E-03
   0.411E+02 0.638E+02 -.778E+03   -.380E+02 -.661E+02 0.778E+03   -.310E+01 0.230E+01 -.773E+00   -.107E-02 -.292E-03 -.220E-02
   0.321E+03 -.229E+03 -.132E+03   0.135E-11 0.156E-11 -.421E-11   -.321E+03 0.230E+03 0.132E+03   -.773E-02 0.980E-02 0.427E-01

 POSITION                                       TOTAL-FORCE (eV/Angst)
     12.93747      8.41819     21.37968        -0.011928      0.012426      0.001364
     12.49752      9.28779     20.43291        -0.006351     -0.004837      0.002454
     12.99418      6.91752     21.31081        -0.011298      0.010852      0.012632
     12.65749     10.79895     20.64149         0.005840      0.006518     -0.007234
     17.80392      1.87923     17.49973        -0.005775     -0.004980      0.007966
     21.68887      5.04983      9.57948         0.100946      0.072840     -0.026124
     18.57311      3.75615     10.03977         0.037181      0.113528      0.045975
     22.81522     17.09936      8.74523         0.108512      0.056471      0.029486
     14.64921     17.45932     10.08748         0.054630     -0.004834     -0.058412
     19.20987     18.03075      9.91976         0.120062      0.024061     -0.000557
     17.55831      2.55833     12.31361        -0.111333     -0.221263     -0.131700
     21.43153      4.52063     13.68429         0.001078      0.000484      0.000518
     13.66032      5.51363      8.22435        -0.101111     -0.128745      0.043714
     20.86688      6.06431     16.56216         0.002592     -0.002161      0.002833
     13.78684      6.51234     16.53425        -0.005665      0.003281     -0.006599
     13.88915     15.78700     15.54397        -0.003882     -0.004178     -0.000632
      0.79557      6.12546     17.52432        -0.002165     -0.004574     -0.003222
     21.89589      7.60212     12.20778        -0.090004      0.133769      0.069677
     17.46807      9.60991     11.35790        -0.322128      0.159474     -0.036631
     18.65908      6.91872     17.05191         0.000256      0.002225     -0.002943
     13.83846     10.30524     10.16285         0.097469     -0.186288      0.062099
     16.81947     11.70510     10.30871        -0.029724      0.239946     -0.018345
     19.69248      9.82944     11.28016        -0.107420     -0.102704      0.013220
      0.11154     10.94157      9.61829         0.110143     -0.009098     -0.030450
     19.39295     12.90878     12.57986         0.229803     -0.039524     -0.052769
     20.53603     10.85145     19.39018         0.005155      0.008687      0.008050
     12.17365     17.85965     11.33680         0.013983      0.131062     -0.099825
      5.22293     17.76162     10.57067        -0.011206     -0.354549      0.119397
      5.06559      4.31016      8.58199         0.179108     -0.200282      0.070267
      3.68730      5.97650      7.50000         0.014152     -0.078736      0.115461
      7.99605      2.81941      8.89229         0.085390     -0.090467      0.065649
      5.21407      0.82921      8.67630         0.002967      0.017929      0.150258
     11.97331     14.93442     14.69427         0.001417      0.005094      0.000727
      8.90157      4.39025     17.40463         0.012759     -0.010230      0.003823
      5.72182      1.68456     16.09234        -0.005897      0.011154     -0.001160
      7.38348      8.82752     11.89413         0.233948      0.096362     -0.171666
      9.57419      7.95042     10.90633         0.122765     -0.109196     -0.116827
      9.32939     14.37220     10.45190         0.045810      0.002105      0.131836
      5.71709     11.87720      7.91250        -0.105341     -0.017771      0.040315
      7.29827      7.58330      9.92689        -0.164553     -0.091983     -0.010654
      9.49268     10.58787      9.10862        -0.111049      0.037091     -0.003843
      3.26254      8.84269      9.46105        -0.025104     -0.205693     -0.121733
     13.88920     12.64839      9.47364        -0.128065     -0.097362      0.164757
     10.98006     15.61013     11.93160         0.316988      0.335482      0.163238
      2.85195      5.85018     16.44385         0.013760      0.016170      0.003562
      1.70229     12.05404     17.35780         0.001155      0.002714      0.002172
      5.67304      6.96999     18.34842        -0.003856     -0.004635      0.011080
      5.72793     14.76149     17.98576        -0.002619      0.021782      0.015671
     13.34086      8.85046     22.30806        -0.007840      0.015295      0.001641
     13.10882      8.03213     18.68046         0.002909      0.001115     -0.002415
     12.65111      6.47048     22.25816        -0.012507      0.007888      0.010387
     12.40409      6.50096     20.48734        -0.015745      0.010934      0.009623
     14.04369      6.59355     21.17557        -0.010415      0.007549      0.017361
     11.69416     11.25555     20.92204         0.002411      0.009337     -0.037806
     13.39210     10.99765     21.43828        -0.019544      0.010200      0.014831
     12.99370     11.31147     19.72836         0.035796     -0.010608     -0.001808
      8.63740     11.74900     11.80180        -0.246600      0.114251     -0.240128
      8.11940      9.13372     11.30145        -0.097097      0.608765      0.026764
     20.14987     10.25768     18.72991        -0.012115     -0.012450     -0.006772
      8.16741     17.34804     14.25734        -0.002824     -0.004431      0.004035
[...]
      5.71814      6.71222     11.31648         0.022672     -0.130689     -0.114622
     15.41693      5.98005     12.10687        -0.165612     -0.462934     -0.810771
     10.77053      5.74815     14.21702         0.010707     -0.000456      0.000355
      7.89661     10.69049     10.72869        -0.117038     -0.073246     -0.049588
     18.80088      8.63420     15.58492         0.004338      0.003362      0.003458
      1.62029     16.28844     12.91761        -0.328762      6.442631     -0.553699
      4.96103      2.61769     10.04353        -0.073107     -0.040293      0.063249
      1.83153      8.95162     13.29887         0.030656     -0.137958     -0.310540
     13.05344     15.44546     12.76235       -22.292055    -15.855852      4.708485
     16.81300     10.59724     16.38824         0.012574      0.000037      0.002139
      6.71066      3.80730     12.34244        -0.220035     -0.004700     -0.749282
      2.06570     11.33583     15.25948         0.001184     -0.001187     -0.007252
      8.28864      0.31281     15.55083        -0.005531      0.020908      0.000973
     11.38252      8.69537     15.31287        -0.015333      0.004904      0.005468
     11.56606      8.74936     18.61171         0.026065      0.011092     -0.011199
    total drift:                                0.416794      0.484345      0.220508

  FREE ENERGIE OF THE ION-ELECTRON SYSTEM (eV)
  free  energy   TOTEN  =     -1886.38061809 eV

  energy  without entropy=    -1886.38061809  energy(sigma->0) =    -1886.38061809

 stress matrix after NEB project (eV)
    -32.62070      0.10163      0.18778
      0.10163    -33.31793     -0.07267
      0.18778     -0.07267    -25.21291
  FORCES: max atom, RMS     0.039016    0.010406
  FORCE total and by dimension    0.172869    0.037806
  Stress total and by dimension   53.009313   33.317928
 Quasi-Newton relaxation of ions (Broydens 2nd method)
  g(Force)  = 0.144E-02   g(Stress)= 0.000E+00

 Reset! Starting new Quasi-Newton update for ions

 reached required accuracy - stopping structural energy minimisation