 vasp.5.4.4.18Apr17-6-g9f103f2a35 (build Oct 20 2021 08:33:53) complex
 executed on             LinuxGNU date 2025.03.01  11:25:58

 INCAR:
 POTCAR:    PAW_PBE C 08Apr2002
 POTCAR:    PAW_PBE H 15Jun2001
 POTCAR:    PAW_PBE O 08Apr2002
 POTCAR:    PAW_PBE Si 05Jan2001
 POTCAR:    PAW_PBE W 08Apr2002
 POTCAR:    PAW_PBE C 08Apr2002
   VRHFIN =C: s2p2

   TITEL  = PAW_PBE C 08Apr2002
   POMASS =   12.011; ZVAL   =    4.000    mass and valenz
   ENMAX  =  400.000; ENMIN  =  300.000 eV

 POTCAR:    PAW_PBE H 15Jun2001
   VRHFIN =H: ultrasoft test

   TITEL  = PAW_PBE H 15Jun2001
   POMASS =    1.000; ZVAL   =    1.000    mass and valenz
   ENMAX  =  250.000; ENMIN  =  200.000 eV

 POTCAR:    PAW_PBE O 08Apr2002
   VRHFIN =O: s2p4

[...]

 POTCAR:    PAW_PBE Si 05Jan2001
   VRHFIN =Si: s2p2

   TITEL  = PAW_PBE Si 05Jan2001
   POMASS =   28.085; ZVAL   =    4.000    mass and valenz
   ENMAX  =  245.345; ENMIN  =  184.009 eV

 POTCAR:    PAW_PBE W 08Apr2002
   VRHFIN =W : 6s5d

   TITEL  = PAW_PBE W 08Apr2002
   POMASS =  183.850; ZVAL   =    6.000    mass and valenz
   ENMAX  =  223.057; ENMIN  =  167.293 eV

 Optimization of the real space projectors (new method)

 maximal supplied QI-value         = 25.13
 optimisation between [QCUT,QGAM] = [ 11.31, 22.87] = [ 35.82,146.48] Ry
 Optimized for a Real-space Cutoff    1.00 Angstroem

   l    n(q)    QCUT    max X(q) W(low)/X(q) W(high)/X(q)  e(spline)
   0      7    11.310   115.676    0.43E-03    0.13E-02    0.19E-06
   0      7    11.310    87.132    0.43E-03    0.13E-02    0.18E-06
   1      6    11.310     4.429    0.42E-03    0.74E-03    0.11E-06
   1      6    11.310     2.733    0.34E-03    0.55E-03    0.92E-07
 Optimization of the real space projectors (new method)

[...]

   l    n(q)    QCUT    max X(q) W(low)/X(q) W(high)/X(q)  e(spline)
   0      8    11.310   159.560    0.27E-03    0.30E-03    0.39E-07
   0      8    11.310   115.863    0.27E-03    0.30E-03    0.38E-07
   1      7    11.310    88.339    0.28E-03    0.28E-03    0.77E-07
   1      7    11.310    48.592    0.27E-03    0.27E-03    0.74E-07
 Optimization of the real space projectors (new method)

 maximal supplied QI-value         = 13.61
 optimisation between [QCUT,QGAM] = [ 11.43, 22.86] = [ 36.58,146.31] Ry
 Optimized for a Real-space Cutoff    1.56 Angstroem

   l    n(q)    QCUT    max X(q) W(low)/X(q) W(high)/X(q)  e(spline)
   2     10    11.429   130.855    0.22E-03    0.64E-03    0.11E-05
   2     10    11.429   114.007    0.22E-03    0.64E-03    0.11E-05
   0     11    11.429    84.709    0.39E-04    0.67E-04    0.23E-06
   0     11    11.429    49.163    0.35E-04    0.62E-04    0.21E-06
   1     10    11.429    15.765    0.84E-04    0.15E-03    0.24E-06
   1     10    11.429    10.638    0.58E-04    0.12E-03    0.19E-06

  PAW_PBE C 08Apr2002                   :
  PAW_PBE H 15Jun2001                   :
  PAW_PBE O 08Apr2002                   :
  PAW_PBE Si 05Jan2001                  :
  PAW_PBE W 08Apr2002                   :

 POSCAR:  C  H  O Si  W
  positions in direct lattice
  velocities in cartesian coordinates
 exchange correlation table for  LEXCH =        9
   RHO(1)=    0.500       N(1)  =     2000
   RHO(2)=  100.500       N(2)  =     4000

 VTST: version 3.2, (02/03/18)

 CHAIN: initializing optimizer

 OPT: Using VASP Quick-Min optimizer
 CHAIN: Read ICHAIN            0
 CHAIN: Running the NEB
 NEB:          SPRING     -5.000000
 NEB:          LCLIMB      T
 NEB:     LTANGENTOLD      F
 NEB:           LDNEB      F
 NEB:        LDNEBORG      F
 NEB:        LNEBCELL      F
 NEB:          EFIRST      0.000000
 NEB:           ELAST      0.000000

 POSCAR:  C  H  O Si  W
  positions in cartesian coordinates

 POSCAR:  C  H  O Si  W
  positions in cartesian coordinates

 ion  position               nearest neighbor table
   1  0.592  0.437  0.705-  50 1.10  49 1.10 276 1.92
   2  0.493  0.629  0.790-  52 1.10  53 1.10  51 1.10   3 1.50
   3  0.547  0.610  0.763-  54 1.09   4 1.35   2 1.50
   4  0.582  0.554  0.775-  55 1.09  56 1.09   3 1.35
   5  0.761  0.077  0.651- 131 0.97
   6  0.926  0.251  0.356-  79 0.98
   7  0.793  0.180  0.373- 114 0.97
   8  0.975  0.916  0.325- 123 0.97
   9  0.626  0.936  0.375- 125 0.98
  10  0.821  0.967  0.369- 143 0.97
  11  0.750  0.114  0.458- 181 0.98
  12  0.916  0.222  0.509- 186 0.97
  13  0.583  0.277  0.306- 191 0.97
  14  0.892  0.308  0.617-  97 0.98
  15  0.588  0.330  0.617- 142 0.97
  16  0.594  0.844  0.577- 184 0.99
  17  0.034  0.310  0.653- 190 0.97
  18  0.935  0.392  0.454- 179 0.98
  19  0.746  0.503  0.422-  93 1.00
  20  0.799  0.356  0.636- 171 0.97
  21  0.591  0.541  0.378- 105 0.99
  22  0.718  0.618  0.383- 128 0.99
  23  0.841  0.515  0.420- 134 0.98
  24  0.005  0.576  0.358- 139 0.97
  25  0.828  0.685  0.468- 180 0.99
  26  0.880  0.572  0.721-  59 0.97
  27  0.520  0.958  0.422- 141 0.99
  28  0.223  0.953  0.393- 182 1.00
  29  0.216  0.210  0.319- 197 0.99
  30  0.158  0.302  0.279- 188 0.97
  31  0.342  0.128  0.331- 189 0.98
  32  0.223  0.018  0.323- 196 0.97
  33  0.512  0.798  0.547- 199 0.97
  34  0.375  0.212  0.647-  84 0.97
  35  0.244  0.066  0.598- 135 0.98
  36  0.315  0.460  0.442-  58 0.99
  37  0.409  0.411  0.406- 147 0.98
  38  0.398  0.766  0.389- 185 0.97
  39  0.244  0.628  0.294- 193 0.97
  40  0.312  0.391  0.369- 194 0.98
  41  0.405  0.557  0.339- 195 0.97
  42  0.139  0.460  0.352- 187 0.98
  43  0.593  0.670  0.352-  88 0.97
  44  0.469  0.834  0.444- 198 0.99
  45  0.122  0.297  0.613- 107 0.97
  46  0.074  0.636  0.646- 138 0.97
  47  0.244  0.360  0.682- 183 0.97
  48  0.246  0.788  0.670- 192 0.97
  49  0.604  0.394  0.732-   1 1.10
  50  0.628  0.464  0.686-   1 1.10
  51  0.499  0.682  0.810-   2 1.10
  52  0.482  0.587  0.818-   2 1.10
  53  0.457  0.637  0.764-   2 1.10
  54  0.559  0.646  0.732-   3 1.09
  55  0.623  0.546  0.756-   4 1.09
  56  0.573  0.517  0.806-   4 1.09
  57  0.369  0.621  0.439- 230 1.66 265 1.68
  58  0.347  0.476  0.420-  36 0.99 265 1.67
  59  0.863  0.539  0.697-  26 0.97 236 1.64
  60  0.349  0.930  0.531- 241 1.68 274 1.70
[...]
 218  0.214  0.448  0.510- 178 1.61 177 1.63 137 1.66 174 1.66 229 3.10 262 3.14
 219  0.915  0.728  0.496- 102 1.65 180 1.65  86 1.66  91 1.66 232 2.99 240 3.02
 220  0.521  0.083  0.426- 113 1.64  64 1.65 141 1.66 121 1.67 251 3.08 234 3.12
 221  0.419  0.142  0.589-  84 1.64 201 1.65 101 1.68 161 1.69 274 3.14 261 3.14
 222  0.083  0.112  0.407-  63 1.64 144 1.65  89 1.65 157 1.66 215 3.11 214 3.13 268 3.14
 223  0.702  0.017  0.487-  96 1.64 165 1.65  62 1.65 181 1.66 234 3.09 224 3.10
 224  0.665  0.870  0.437-  95 1.53 165 1.66 125 1.66 156 1.67 270 2.83 257 3.06 223 3.10
 225  0.650  0.476  0.430- 105 1.65 163 1.65  93 1.67  99 1.68 233 3.08
 226  0.198  0.885  0.464- 136 1.50 182 1.64 159 1.66 115 1.67 244 3.01 241 3.06 267 3.07
 227  0.215  0.339  0.604-  83 1.63 178 1.64 107 1.64 183 1.65
 228  0.675  0.787  0.594- 184 1.62 116 1.64  98 1.67 206 1.70 255 2.90
 229  0.217  0.614  0.539- 176 1.63 169 1.63 202 1.65 137 1.65 244 3.09 218 3.10 273 3.12
 230  0.369  0.708  0.459-  73 1.65  57 1.66 104 1.67 185 1.68
 231  0.798  0.862  0.596- 140 1.66  98 1.66 109 1.66 205 1.68 240 2.86 232 2.98 258 3.14
 232  0.880  0.885  0.512-  72 1.60  91 1.62 109 1.65 117 1.65 231 2.98 219 2.99 256 3.05 247 3.13

 233  0.577  0.548  0.512-  99 1.58 166 1.63 100 1.63 133 1.65 243 3.00 225 3.08 217 3.14
 234  0.590  0.088  0.525-  62 1.60 121 1.60 158 1.62 148 1.65 261 2.85 223 3.09 220 3.12 245 3.13

[...]

 272  0.287  0.183  0.459- 173 1.63 122 1.63  67 1.66 152 1.67 250 3.02 268 3.12
 273  0.088  0.598  0.568- 162 1.63 138 1.64 108 1.64 169 1.65 269 3.09 229 3.12 249 3.15
 274  0.354  0.991  0.578- 161 1.63  69 1.66  60 1.70 208 1.70 241 2.38 260 2.75 221 3.14
 275  0.485  0.453  0.573-  77 1.64 133 1.65 127 1.68  85 1.68 252 2.97
 276  0.513  0.466  0.695- 210 1.71   1 1.92  77 1.96 124 2.02 252 3.19

  LATTYP: Found a simple orthorhombic cell.
 ALAT       =    18.1212369514
 B/A-ratio  =     1.2919258579
 C/A-ratio  =     1.4835282260

  Lattice vectors:

 A1 = (   0.0000000000, -18.1212369514,   0.0000000000)
 A2 = ( -23.4112945954,   0.0000000000,   0.0000000000)
 A3 = (   0.0000000000,   0.0000000000, -26.8833665073)

Analysis of symmetry for initial positions (statically):
 Subroutine PRICEL returns:
 Original cell was already a primitive cell.

 Routine SETGRP: Setting up the symmetry group for a
 simple orthorhombic supercell.

 Subroutine GETGRP returns: Found  1 space group operations
 (whereof  1 operations were pure point group operations)
 out of a pool of  8 trial point group operations.

The static configuration has the point symmetry C_1 .

Analysis of symmetry for dynamics (positions and initial velocities):
 Subroutine PRICEL returns:
 Original cell was already a primitive cell.

[...]

The dynamic configuration has the point symmetry C_1 .

Analysis of constrained symmetry for selective dynamics:
 Subroutine PRICEL returns:
 Original cell was already a primitive cell.

 Routine SETGRP: Setting up the symmetry group for a
 simple orthorhombic supercell.

 Subroutine GETGRP returns: Found  1 space group operations
 (whereof  1 operations were pure point group operations)
 out of a pool of  8 trial point group operations.

The constrained configuration has the point symmetry C_1 .

 Subroutine INISYM returns: Found  1 space group operations
 (whereof  1 operations are pure point group operations),
 and found     1 'primitive' translations

 KPOINTS: KPOINTS created by Atomic Simulation Env

Automatic generation of k-mesh.
Space group operators:
 irot       det(A)        alpha          n_x          n_y          n_z        tau_x        tau_y        tau_z
    1     1.000000     0.000000     1.000000     0.000000     0.000000     0.000000     0.000000     0.000000

 Subroutine IBZKPT returns following result:

 Found      5 irreducible k-points:

 Following reciprocal coordinates:
            Coordinates               Weight
  0.000000  0.000000  0.000000      1.000000
  0.333333  0.000000  0.000000      2.000000
  0.000000  0.333333  0.000000      2.000000
  0.333333  0.333333  0.000000      2.000000
 -0.333333  0.333333  0.000000      2.000000

 Following cartesian coordinates:
            Coordinates               Weight
  0.000000  0.000000  0.000000      1.000000
  0.014238  0.000000  0.000000      2.000000
  0.000000  0.018395  0.000000      2.000000
  0.014238  0.018395  0.000000      2.000000
 -0.014238  0.018395  0.000000      2.000000

 SYSTEM =  unknown system
 POSCAR =   C  H  O Si  W

 Startparameter for this run:
   NWRITE =      2    write-flag & timer
   PREC   = normal    normal or accurate (medium, high low for compatibility)
   ISTART =      1    job   : 0-new  1-cont  2-samecut
   ICHARG =      2    charge: 1-file 2-atom 10-const
   ISPIN  =      1    spin polarized calculation?
   LNONCOLLINEAR =      F non collinear calculations
   LSORBIT =      F    spin-orbit coupling
   INIWAV =      1    electr: 0-lowe 1-rand  2-diag
   LASPH  =      T    aspherical Exc in radial PAW
   METAGGA=      F    non-selfconsistent MetaGGA calc.

 Electronic Relaxation 1
[...]
   -.194E+01 -.365E+02 0.238E+03   0.246E+01 0.403E+02 -.245E+03   -.515E+00 -.386E+01 0.729E+01   -.375E-05 -.134E-04 -.224E-04
   0.442E+02 -.137E+02 0.191E+03   -.503E+02 0.171E+02 -.195E+03   0.618E+01 -.354E+01 0.405E+01   0.469E-04 -.225E-04 -.517E-04
   -.157E+01 0.497E+02 0.228E+03   0.929E+00 -.515E+02 -.236E+03   0.646E+00 0.182E+01 0.808E+01   -.192E-05 -.329E-04 -.385E-04
   0.676E+02 0.624E+01 -.666E+02   -.753E+02 -.652E+01 0.698E+02   0.766E+01 0.288E+00 -.310E+01   -.158E-03 0.353E-04 -.435E-04
   0.547E+02 -.790E+02 -.150E+03   -.592E+02 0.861E+02 0.151E+03   0.451E+01 -.705E+01 -.823E+00   -.563E-04 0.115E-04 -.481E-04
   0.155E+02 0.760E+02 -.105E+03   -.139E+02 -.840E+02 0.104E+03   -.152E+01 0.795E+01 0.124E+01   0.287E-04 -.726E-04 0.261E-04
   0.174E+02 0.172E+02 -.549E+01   -.228E+02 -.197E+02 0.994E+01   0.559E+01 0.252E+01 -.459E+01   -.357E-04 0.338E-04 -.128E-04
   0.285E+02 -.517E+02 0.528E+02   -.336E+02 0.561E+02 -.489E+02   0.525E+01 -.445E+01 -.402E+01   0.618E-05 -.181E-04 -.548E-04
   0.150E+02 -.263E+02 0.208E+03   -.170E+02 0.271E+02 -.216E+03   0.214E+01 -.794E+00 0.797E+01   -.284E-04 0.165E-04 -.888E-05
   -.765E+02 -.272E+02 0.198E+03   0.836E+02 0.282E+02 -.202E+03   -.723E+01 -.106E+01 0.394E+01   -.712E-04 -.353E-05 0.260E-04
   -.830E+02 -.366E+02 0.134E+03   0.900E+02 0.406E+02 -.134E+03   -.716E+01 -.403E+01 -.163E+00   -.265E-04 0.105E-04 -.677E-04
   -.102E+03 0.112E+02 0.154E+03   0.109E+03 -.132E+02 -.155E+03   -.796E+01 0.202E+01 0.105E+01   -.577E-04 0.188E-04 -.691E-04
   0.366E+00 -.694E+02 0.100E+03   0.932E+00 0.761E+02 -.959E+02   -.133E+01 -.693E+01 -.420E+01   -.201E-04 0.324E-05 -.357E-04
   -.323E+02 -.493E+02 0.218E+03   0.362E+02 0.538E+02 -.224E+03   -.406E+01 -.454E+01 0.559E+01   -.127E-04 -.151E-04 -.324E-04
   0.764E+02 0.225E+02 0.109E+03   -.823E+02 -.265E+02 -.112E+03   0.621E+01 0.436E+01 0.246E+01   -.457E-04 0.289E-04 -.124E-04
   0.507E+02 0.505E+02 -.109E+03   -.560E+02 -.566E+02 0.107E+03   0.537E+01 0.614E+01 0.180E+01   -.262E-04 0.744E-04 -.141E-06
   -.190E+02 -.676E+02 -.196E+03   0.214E+02 0.735E+02 0.201E+03   -.246E+01 -.592E+01 -.545E+01   0.905E-05 -.126E-03 0.454E-04
   0.169E+02 0.145E+02 -.226E+03   -.188E+02 -.166E+02 0.234E+03   0.195E+01 0.209E+01 -.790E+01   -.268E-04 -.390E-04 -.710E-04
   0.266E+02 -.757E+02 -.196E+03   -.266E+02 0.827E+02 0.201E+03   -.163E-01 -.695E+01 -.467E+01   0.126E-03 0.117E-04 -.261E-04
   -.355E+02 0.654E+02 -.163E+03   0.369E+02 -.693E+02 0.167E+03   -.142E+01 0.390E+01 -.365E+01   -.196E-03 0.484E-04 -.459E-04
   -.564E+02 0.165E+02 -.115E+03   0.606E+02 -.141E+02 0.112E+03   -.424E+01 -.249E+01 0.260E+01   -.808E-04 -.135E-03 0.835E-04
   0.768E+01 -.647E+02 -.143E+03   -.710E+01 0.694E+02 0.145E+03   -.639E+00 -.470E+01 -.261E+01   0.333E-03 -.786E-04 -.531E-04
   0.350E+02 0.284E+02 -.156E+03   -.364E+02 -.322E+02 0.160E+03   0.138E+01 0.383E+01 -.374E+01   0.293E-03 0.101E-04 -.160E-04
   0.687E+02 -.246E+02 -.104E+03   -.729E+02 0.252E+02 0.101E+03   0.422E+01 -.632E+00 0.353E+01   0.137E-03 0.972E-04 -.210E-03
   -.186E+02 -.584E+02 -.106E+03   0.201E+02 0.619E+02 0.102E+03   -.147E+01 -.340E+01 0.442E+01   0.152E-03 -.777E-04 0.190E-04
   -.688E+02 0.893E+01 -.123E+03   0.739E+02 -.964E+01 0.120E+03   -.512E+01 0.752E+00 0.273E+01   0.364E-04 -.327E-04 0.367E-04
   -.570E+01 0.423E+02 -.167E+03   0.460E+01 -.458E+02 0.172E+03   0.112E+01 0.355E+01 -.435E+01   0.247E-03 0.203E-04 -.676E-04
   -.155E+03 0.500E+02 0.333E+03   0.169E+03 -.614E+02 -.324E+03   -.142E+02 0.115E+02 -.952E+01   -.297E-03 0.235E-03 -.207E-03
   -.177E+03 0.425E+02 0.380E+03   0.205E+03 -.582E+02 -.389E+03   -.279E+02 0.163E+02 0.956E+01   -.249E-03 0.248E-03 -.441E-03
   -.190E+03 0.147E+03 -.947E+03   0.187E+03 -.186E+03 0.948E+03   0.372E+01 0.391E+02 -.128E+01   0.511E-03 0.116E-02 -.640E-03
   -.310E+02 0.228E+02 0.856E+02   0.538E+02 -.325E+02 -.115E+03   -.229E+02 0.970E+01 0.296E+02   -.785E-03 0.258E-03 0.785E-04
[...]
   -.495E+02 -.123E+02 0.212E+03   0.489E+02 0.111E+02 -.214E+03   0.478E+00 0.749E+00 0.891E+00   0.416E-04 -.312E-04 -.130E-03
   0.718E+02 -.358E+02 -.158E+03   -.663E+02 0.346E+02 0.155E+03   -.552E+01 0.130E+01 0.347E+01   0.416E-04 -.944E-04 0.120E-03
   -.875E+02 -.221E+02 0.375E+03   0.876E+02 0.200E+02 -.377E+03   -.178E+00 0.200E+01 0.172E+01   -.141E-03 0.117E-03 -.187E-03
   -.612E+02 0.994E+02 -.265E+03   0.609E+02 -.997E+02 0.267E+03   0.349E+00 0.295E+00 -.172E+01   0.390E-03 0.380E-03 -.104E-03
   -.120E+02 0.278E+00 0.293E+02   0.127E+02 -.350E+01 -.316E+02   -.965E+00 0.966E+01 0.179E+01   0.415E-04 0.209E-03 -.169E-03
   -.286E+02 0.848E+02 0.454E+03   0.286E+02 -.831E+02 -.455E+03   -.567E-01 -.174E+01 0.154E+01   -.431E-04 -.123E-03 -.204E-03
   0.918E+02 -.436E+01 -.282E+02   -.905E+02 0.655E+01 0.285E+02   -.134E+01 -.232E+01 -.632E+00   -.121E-03 0.311E-04 0.117E-03
   0.117E+03 0.167E+02 0.149E+03   -.111E+03 -.953E+01 -.153E+03   -.283E+02 -.231E+02 0.860E+01   -.119E-03 0.133E-03 -.210E-03
   -.251E+02 0.102E+03 -.402E+03   0.267E+02 -.100E+03 0.402E+03   -.158E+01 -.171E+01 0.481E+00   0.848E-03 -.364E-03 -.150E-03
   -.306E+02 0.296E+02 0.125E+03   0.306E+02 -.305E+02 -.124E+03   -.212E+00 0.872E+00 -.115E+01   0.958E-04 -.544E-04 0.524E-04
   0.545E+02 -.165E+02 -.367E+03   -.550E+02 0.173E+02 0.368E+03   0.473E+00 -.738E+00 -.870E+00   0.141E-03 -.812E-04 0.220E-03
   0.562E+02 -.621E+02 -.313E+03   -.572E+02 0.576E+02 0.313E+03   0.109E+01 0.455E+01 0.288E-01   -.292E-03 0.390E-04 -.669E-04
   0.114E+03 0.662E+02 -.195E+03   -.110E+03 -.638E+02 0.199E+03   -.378E+01 -.239E+01 -.394E+01   -.202E-03 -.135E-03 0.102E-04
   0.307E+02 0.917E+02 -.805E+03   -.292E+02 -.955E+02 0.804E+03   -.151E+01 0.376E+01 0.148E+01   -.327E-04 -.485E-03 -.198E-03
   0.321E+03 -.237E+03 -.116E+03   0.131E-11 -.526E-12 -.443E-11   -.321E+03 0.237E+03 0.116E+03   -.213E-01 0.942E-02 -.213E-01

 POSITION                                       TOTAL-FORCE (eV/Angst)
     13.85255      7.91417     18.94002         0.006188      0.010015     -0.010717
     11.53888     11.40423     21.24445        -0.030352      0.001072     -0.003600
     12.80309     11.05644     20.51645        -0.019293      0.012855      0.013193
     13.63186     10.03813     20.84089        -0.015649      0.012186      0.013817
     17.81227      1.39911     17.49439         0.003483      0.006765     -0.007167
     21.68887      4.54983      9.57948         0.102142      0.075871     -0.024123
     18.57311      3.25615     10.03977         0.039456      0.116708      0.047430
     22.81522     16.59936      8.74523         0.110166      0.060553      0.031054
     14.64921     16.95932     10.08748         0.055428     -0.001319     -0.056592
     19.20987     17.53075      9.91976         0.121548      0.027421      0.000616
     17.55831      2.05833     12.31361        -0.111387     -0.219030     -0.131493
     21.43334      4.02042     13.69609        -0.001086     -0.000322     -0.002400
     13.66032      5.01363      8.22435        -0.099743     -0.124947      0.045453
     20.88935      5.57456     16.57766         0.001610     -0.001502      0.002763
     13.75702      5.98003     16.57708         0.000898     -0.010551      0.002976
     13.91449     15.29366     15.52432        -0.001166     -0.003212     -0.000787
      0.78583      5.61596     17.54282         0.001410      0.002583      0.002391
     21.89589      7.10212     12.20778        -0.087205      0.139026      0.068930
     17.46807      9.10991     11.35790        -0.329893      0.165559     -0.038426
     18.71415      6.45487     17.08591        -0.007321     -0.003935      0.007068
     13.83846      9.80524     10.16285         0.097645     -0.181626      0.066951
     16.81947     11.20510     10.30871        -0.029847      0.242016     -0.017981
     19.69248      9.32944     11.28016        -0.105086     -0.098481      0.015983
      0.11154     10.44157      9.61829         0.112379     -0.005677     -0.028864
     19.39295     12.40878     12.57986         0.227632     -0.038927     -0.066367
     20.59807     10.36487     19.37781        -0.000272     -0.007657     -0.004957
     12.17365     17.35965     11.33680         0.015767      0.133574     -0.098231
      5.22293     17.26162     10.57067        -0.009315     -0.352910      0.121648
      5.06559      3.81016      8.58199         0.182023     -0.198192      0.071761
      3.68730      5.47650      7.50000         0.016183     -0.075808      0.118027
      7.99605      2.31941      8.89229         0.088365     -0.088467      0.068179
      5.21407      0.32921      8.67630         0.004982      0.020215      0.151333
     11.97753     14.46719     14.70627         0.001964     -0.004782      0.000907
      8.78676      3.84042     17.38698         0.001252     -0.002088      0.002312
      5.72383      1.18781     16.08935         0.003938     -0.007881     -0.005350
      7.38348      8.32752     11.89413         0.237978      0.096717     -0.169675
      9.57419      7.45042     10.90633         0.124769     -0.109156     -0.114344
      9.32939     13.87220     10.45190         0.049531      0.003863      0.131142
      5.71709     11.37720      7.91250        -0.103643     -0.015521      0.043010
      7.29827      7.08330      9.92689        -0.162314     -0.089131     -0.008932
      9.49268     10.08787      9.10862        -0.109349      0.040121     -0.001947
      3.26254      8.34269      9.46105        -0.022562     -0.201849     -0.121141
     13.88920     12.14839      9.47364        -0.126724     -0.093746      0.168260
     10.98006     15.11013     11.93160         0.316089      0.334763      0.167410
      2.86470      5.38706     16.47985         0.005614      0.003342     -0.004280
      1.73133     11.52498     17.37623         0.002332      0.006989     -0.000961
      5.70473      6.52704     18.33991         0.000134      0.000128     -0.006927
      5.76313     14.27818     17.99975        -0.010025     -0.018706     -0.000338
     14.14653      7.14658     19.66672         0.020675      0.015972     -0.009827
     14.69504      8.40386     18.43598         0.004864      0.024621     -0.003793
     11.67554     12.36452     21.77226        -0.049240      0.008381     -0.009609
     11.27472     10.63603     21.98595        -0.024828      0.004797      0.004989
     10.70247     11.53491     20.54079        -0.028122     -0.017403     -0.008107
     13.08171     11.70641     19.68105        -0.018941      0.019917      0.016630
     14.58540      9.90172     20.33405        -0.017334      0.017731      0.008865
     13.41401      9.36260     21.67214        -0.024050      0.004300     -0.000253
      8.63740     11.24900     11.80180        -0.239271      0.131682     -0.203475
      8.11940      8.63372     11.30145        -0.102790      0.603605      0.046761
     20.19385      9.77159     18.72705        -0.001893     -0.008589     -0.001618
      8.16569     16.85116     14.26398         0.002090     -0.003271      0.000784
[...]
      5.71814      6.21222     11.31648         0.031995     -0.117952     -0.114093
     15.41693      5.48005     12.10687        -0.176538     -0.459951     -0.773430
     10.77058      5.27508     14.21812        -0.005058      0.000748     -0.000458
      7.89661     10.19049     10.72869        -0.117828     -0.083939     -0.033689
     18.82964      8.14755     15.59166        -0.003205     -0.011753      0.005876
      1.62029     15.78844     12.91761        -0.327232      6.439515     -0.549553
      4.96103      2.11769     10.04353        -0.074842     -0.040584      0.076836
      1.83153      8.45162     13.29887         0.023790     -0.129957     -0.286598
     13.05344     14.94546     12.76235       -22.285253    -15.872231      4.724592
     16.85513     10.11178     16.39451         0.001535     -0.003088      0.002862
      6.71066      3.30730     12.34244        -0.195246      0.002304     -0.786544
      2.05850     10.83212     15.26305         0.004880     -0.000275     -0.000917
      8.27965     17.95564     15.54529        -0.000183      0.000072     -0.002559
     11.35377      8.21653     15.39385         0.004464     -0.009113     -0.004109
     12.02039      8.44030     18.68569         0.004760     -0.012477     -0.018084
    total drift:                               -0.058217     -0.270506      0.064232

  FREE ENERGIE OF THE ION-ELECTRON SYSTEM (eV)
  free  energy   TOTEN  =     -1885.84744393 eV

  energy  without entropy=    -1885.84744393  energy(sigma->0) =    -1885.84744393

 d Force = 0.9029677E-04[ 0.874E-04, 0.932E-04]  d Energy = 0.1909141E-03-0.101E-03
 d Force =-0.1936206E+00[-0.194E+00,-0.194E+00]  d Ewald  =-0.1936207E+00 0.101E-06

 NEB: the previous image is higher in energy: F
 NEB: the next image is higher in energy    : F
 NEB: image is at an extrema
 NEB: diff energy (min, max):     0.089164    0.299047

 NEB: Tangent
     -0.17170      0.03084      0.05147
      0.08523      0.10658      0.07168
      0.19688      0.22974      0.19712
      0.15185      0.23420      0.20122
      0.00377      0.00025      0.00219
      0.00000      0.00000      0.00000
      0.00000      0.00000      0.00000
      0.00000      0.00000      0.00000
      0.00000      0.00000      0.00000
      0.00000      0.00000      0.00000
      0.00000      0.00000      0.00000
     -0.00039     -0.00011      0.00299
      0.00000      0.00000      0.00000
     -0.00009      0.00084      0.00140
     -0.00238     -0.00125      0.00009
     -0.00279     -0.00362      0.00393
     -0.00286     -0.00228      0.00572
      0.00000      0.00000      0.00000
      0.00000      0.00000      0.00000
      0.00153      0.00185      0.00167
      0.00000      0.00000      0.00000
      0.00000      0.00000      0.00000
      0.00000      0.00000      0.00000
      0.00000      0.00000      0.00000
      0.00000      0.00000      0.00000
     -0.01782     -0.00350      0.00885
      0.00000      0.00000      0.00000
      0.00000      0.00000      0.00000
      0.00000      0.00000      0.00000
      0.00000      0.00000      0.00000
      0.00000      0.00000      0.00000
      0.00000      0.00000      0.00000
     -0.00120     -0.00281     -0.00200
     -0.00519     -0.01267      0.00169
      0.00114     -0.00074     -0.00067
      0.00000      0.00000      0.00000
      0.00000      0.00000      0.00000
      0.00000      0.00000      0.00000
      0.00000      0.00000      0.00000
      0.00000      0.00000      0.00000
      0.00000      0.00000      0.00000
      0.00000      0.00000      0.00000
      0.00000      0.00000      0.00000
      0.00000      0.00000      0.00000
     -0.00091      0.00224      0.00331
     -0.00383     -0.00025      0.00115
      0.00339      0.00133     -0.00066
     -0.00164     -0.00465      0.00350
     -0.10410      0.13610      0.12998
     -0.21757      0.12644      0.06296
     -0.07317      0.11978      0.08852
      0.09280      0.07204      0.04080
      0.13009      0.01372     -0.00588
      0.17023      0.19865      0.15883
      0.12052      0.12195      0.12033
      0.11109      0.17962      0.15007
      0.00000      0.00000      0.00000
      0.00000      0.00000      0.00000
      0.00258     -0.00339     -0.00383
      0.00043     -0.00934      0.00087
[...]
      0.00000      0.00000      0.00000
      0.00000      0.00000      0.00000
     -0.01234     -0.01584     -0.00560
      0.00000      0.00000      0.00000
      0.00018     -0.00004     -0.00017
      0.00000      0.00000      0.00000
      0.00000      0.00000      0.00000
      0.00000      0.00000      0.00000
      0.00000      0.00000      0.00000
     -0.00352     -0.00209      0.00049
      0.00000      0.00000      0.00000
     -0.00146     -0.00017      0.00062
      0.00281     -0.01349      0.00271
     -0.01224     -0.03860     -0.07611
     -0.16621     -0.23194     -0.15425

 NEB: forces: par spring, perp REAL, dneb     2.210077    0.172780    0.000000
 NEB: distance to prev, next image, angle between     1.265210    0.823194  118.277625
 NEB: projections on to tangent (spring, REAL)    -2.210077    0.025863

 stress matrix after NEB project (eV)
    -32.60784      0.08911      0.32041
      0.08911    -33.56012     -0.41178
      0.32041     -0.41178    -25.60366
  FORCES: max atom, RMS     0.047668    0.010516
  FORCE total and by dimension    0.174705    0.045455
  Stress total and by dimension   53.344737   33.560122

 reached required accuracy - stopping structural energy minimisation
 writing wavefunctions