 vasp.5.4.4.18Apr17-6-g9f103f2a35 (build Oct 20 2021 08:33:53) complex
 executed on             LinuxGNU date 2024.05.03  22:19:56

 INCAR:
 POTCAR:    PAW_PBE C 08Apr2002
 POTCAR:    PAW_PBE H 15Jun2001
 POTCAR:    PAW_PBE O 08Apr2002
 POTCAR:    PAW_PBE Si 05Jan2001
 POTCAR:    PAW_PBE W 08Apr2002
 POTCAR:    PAW_PBE C 08Apr2002
   VRHFIN =C: s2p2

   TITEL  = PAW_PBE C 08Apr2002
   POMASS =   12.011; ZVAL   =    4.000    mass and valenz
   ENMAX  =  400.000; ENMIN  =  300.000 eV

 POTCAR:    PAW_PBE H 15Jun2001
   VRHFIN =H: ultrasoft test

   TITEL  = PAW_PBE H 15Jun2001
   POMASS =    1.000; ZVAL   =    1.000    mass and valenz
   ENMAX  =  250.000; ENMIN  =  200.000 eV

 POTCAR:    PAW_PBE O 08Apr2002
   VRHFIN =O: s2p4

[...]

 POTCAR:    PAW_PBE Si 05Jan2001
   VRHFIN =Si: s2p2

   TITEL  = PAW_PBE Si 05Jan2001
   POMASS =   28.085; ZVAL   =    4.000    mass and valenz
   ENMAX  =  245.345; ENMIN  =  184.009 eV

 POTCAR:    PAW_PBE W 08Apr2002
   VRHFIN =W : 6s5d

   TITEL  = PAW_PBE W 08Apr2002
   POMASS =  183.850; ZVAL   =    6.000    mass and valenz
   ENMAX  =  223.057; ENMIN  =  167.293 eV

 Optimization of the real space projectors (new method)

 maximal supplied QI-value         = 25.13
 optimisation between [QCUT,QGAM] = [ 11.31, 22.87] = [ 35.82,146.48] Ry
 Optimized for a Real-space Cutoff    1.00 Angstroem

   l    n(q)    QCUT    max X(q) W(low)/X(q) W(high)/X(q)  e(spline)
   0      7    11.310   115.676    0.43E-03    0.13E-02    0.19E-06
   0      7    11.310    87.132    0.43E-03    0.13E-02    0.18E-06
   1      6    11.310     4.429    0.42E-03    0.74E-03    0.11E-06
   1      6    11.310     2.733    0.34E-03    0.55E-03    0.92E-07
 Optimization of the real space projectors (new method)

[...]

   l    n(q)    QCUT    max X(q) W(low)/X(q) W(high)/X(q)  e(spline)
   0      8    11.310   159.560    0.27E-03    0.30E-03    0.39E-07
   0      8    11.310   115.863    0.27E-03    0.30E-03    0.38E-07
   1      7    11.310    88.339    0.28E-03    0.28E-03    0.77E-07
   1      7    11.310    48.592    0.27E-03    0.27E-03    0.74E-07
 Optimization of the real space projectors (new method)

 maximal supplied QI-value         = 13.61
 optimisation between [QCUT,QGAM] = [ 11.43, 22.86] = [ 36.58,146.31] Ry
 Optimized for a Real-space Cutoff    1.56 Angstroem

   l    n(q)    QCUT    max X(q) W(low)/X(q) W(high)/X(q)  e(spline)
   2     10    11.429   130.855    0.22E-03    0.64E-03    0.11E-05
   2     10    11.429   114.007    0.22E-03    0.64E-03    0.11E-05
   0     11    11.429    84.709    0.39E-04    0.67E-04    0.23E-06
   0     11    11.429    49.163    0.35E-04    0.62E-04    0.21E-06
   1     10    11.429    15.765    0.84E-04    0.15E-03    0.24E-06
   1     10    11.429    10.638    0.58E-04    0.12E-03    0.19E-06

  PAW_PBE C 08Apr2002                   :
  PAW_PBE H 15Jun2001                   :
  PAW_PBE O 08Apr2002                   :
  PAW_PBE Si 05Jan2001                  :
  PAW_PBE W 08Apr2002                   :

 POSCAR:  C  H  O Si  W
  positions in direct lattice
  velocities in cartesian coordinates
 exchange correlation table for  LEXCH =        9
   RHO(1)=    0.500       N(1)  =     2000
   RHO(2)=  100.500       N(2)  =     4000

 VTST: version 3.2, (02/03/18)

 CHAIN: initializing optimizer

 OPT: Using VASP QUASI-newton optimizer
 CHAIN: Read ICHAIN            0

 POSCAR:  C  H  O Si  W
  positions in direct lattice
  velocities in cartesian coordinates

 ion  position               nearest neighbor table
   1  0.441  0.398  0.705-  49 1.10   2 1.52   4 1.64 276 2.07
   2  0.395  0.374  0.742-  52 1.10  51 1.10  50 1.10   1 1.52
   3  0.549  0.454  0.727-  56 1.09  53 1.09   4 1.60 276 2.08
   4  0.507  0.384  0.724-  54 1.09  55 1.09   3 1.60   1 1.64 276 2.37
   5  0.762  0.102  0.652- 131 0.97
   6  0.926  0.279  0.356-  79 0.98
   7  0.793  0.207  0.373- 114 0.97
   8  0.975  0.944  0.325- 123 0.97
   9  0.626  0.963  0.375- 125 0.98
  10  0.821  0.995  0.369- 143 0.97
  11  0.750  0.141  0.458- 181 0.98
  12  0.915  0.249  0.510- 186 0.97
  13  0.583  0.304  0.306- 191 0.97
  14  0.892  0.335  0.616-  97 0.98
  15  0.608  0.367  0.608- 142 0.97
  16  0.594  0.870  0.578- 184 0.99
  17  0.033  0.337  0.654- 190 0.97
  18  0.935  0.420  0.454- 179 0.98
  19  0.746  0.530  0.422-  93 1.00
  20  0.803  0.386  0.638- 171 0.97
  21  0.591  0.569  0.378- 105 0.99
  22  0.718  0.646  0.383- 128 0.99
  23  0.841  0.542  0.420- 134 0.98
  24  0.005  0.604  0.358- 139 0.97
  25  0.828  0.712  0.468- 180 0.99
  26  0.879  0.599  0.721-  59 0.97
  27  0.520  0.986  0.422- 141 0.99
  28  0.223  0.980  0.393- 182 1.00
  29  0.216  0.238  0.319- 197 0.99
  30  0.158  0.330  0.279- 188 0.97
  31  0.342  0.156  0.331- 189 0.98
  32  0.223  0.046  0.323- 196 0.97
  33  0.511  0.827  0.547- 199 0.97
  34  0.362  0.224  0.647-  84 0.97
  35  0.244  0.095  0.599- 135 0.98
  36  0.315  0.487  0.442-  58 0.99
  37  0.409  0.439  0.406- 147 0.98
  38  0.398  0.793  0.389- 185 0.97
  39  0.244  0.655  0.294- 193 0.97
  40  0.312  0.418  0.369- 194 0.98
  41  0.405  0.584  0.339- 195 0.97
  42  0.139  0.488  0.352- 187 0.98
  43  0.593  0.698  0.352-  88 0.97
  44  0.469  0.861  0.444- 198 0.99
  45  0.122  0.327  0.614- 107 0.97
  46  0.074  0.665  0.646- 138 0.97
  47  0.236  0.400  0.682- 183 0.97
  48  0.249  0.816  0.670- 192 0.97
  49  0.436  0.372  0.668-   1 1.10
  50  0.396  0.313  0.747-   2 1.10
  51  0.353  0.388  0.726-   2 1.10
  52  0.400  0.402  0.777-   2 1.10
  53  0.584  0.450  0.700-   3 1.09
  54  0.525  0.345  0.698-   4 1.09
  55  0.502  0.363  0.762-   4 1.09
  56  0.563  0.466  0.765-   3 1.09
  57  0.369  0.648  0.439- 230 1.66 265 1.68
  58  0.347  0.504  0.420-  36 0.99 265 1.67
  59  0.861  0.566  0.697-  26 0.97 236 1.64
  60  0.348  0.960  0.531- 241 1.68 274 1.69
[...]
 218  0.214  0.476  0.510- 178 1.61 177 1.63 137 1.66 174 1.66 229 3.10 262 3.14
 219  0.915  0.756  0.496- 102 1.65 180 1.65  86 1.66  91 1.66 232 2.98 240 3.03
 220  0.521  0.110  0.426- 113 1.64  64 1.65 141 1.66 121 1.67 251 3.08 234 3.12
 221  0.418  0.171  0.590-  84 1.65 201 1.65 101 1.68 161 1.69 261 3.13 274 3.14
 222  0.083  0.139  0.407-  63 1.64 144 1.65  89 1.65 157 1.66 215 3.11 214 3.13 268 3.14
 223  0.702  0.045  0.487-  96 1.64 165 1.65  62 1.65 181 1.66 234 3.09 224 3.10 258 3.15
 224  0.665  0.898  0.437-  95 1.53 165 1.66 125 1.66 156 1.67 270 2.83 257 3.06 223 3.10
 225  0.650  0.504  0.430- 105 1.65 163 1.65  93 1.67  99 1.68 233 3.08
 226  0.198  0.912  0.464- 136 1.50 182 1.64 159 1.66 115 1.67 244 3.01 241 3.07 267 3.07
 227  0.215  0.368  0.604-  83 1.63 178 1.63 107 1.64 183 1.65
 228  0.673  0.812  0.595- 184 1.62 116 1.64  98 1.68 206 1.70 255 2.90
 229  0.217  0.642  0.539- 176 1.63 169 1.63 202 1.65 137 1.65 244 3.09 218 3.10 273 3.12
 230  0.369  0.735  0.459- 104 1.65  73 1.65  57 1.66 185 1.68
 231  0.797  0.888  0.595- 140 1.66  98 1.66 109 1.67 205 1.68 240 2.86 232 2.99
 232  0.879  0.912  0.512-  72 1.60  91 1.62 109 1.65 117 1.66 219 2.98 231 2.99 256 3.05 247 3.14

 233  0.577  0.575  0.512-  99 1.59 166 1.63 100 1.64 133 1.65 243 3.01 225 3.08 217 3.13
 234  0.590  0.115  0.525-  62 1.60 121 1.60 158 1.62 148 1.65 261 2.85 223 3.09 245 3.11 220 3.12

[...]

 272  0.287  0.210  0.459- 173 1.63 122 1.63  67 1.66 152 1.67 250 3.03 268 3.12
 273  0.088  0.625  0.568- 162 1.63 138 1.64 108 1.64 169 1.65 269 3.09 229 3.12
 274  0.353  0.021  0.579- 161 1.64  69 1.66  60 1.69 208 1.69 241 2.38 260 2.73 221 3.14
 275  0.486  0.483  0.574-  77 1.63 133 1.65  85 1.69 127 1.70 252 2.91
 276  0.475  0.503  0.702- 210 1.73 124 1.95   1 2.07   3 2.08  77 2.09   4 2.37 252 3.18

  LATTYP: Found a simple orthorhombic cell.
 ALAT       =    18.1212369514
 B/A-ratio  =     1.2919258579
 C/A-ratio  =     1.4835282260

  Lattice vectors:

 A1 = (   0.0000000000, -18.1212369514,   0.0000000000)
 A2 = ( -23.4112945954,   0.0000000000,   0.0000000000)
 A3 = (   0.0000000000,   0.0000000000, -26.8833665073)

Analysis of symmetry for initial positions (statically):
 Subroutine PRICEL returns:
 Original cell was already a primitive cell.

 Routine SETGRP: Setting up the symmetry group for a
 simple orthorhombic supercell.

 Subroutine GETGRP returns: Found  1 space group operations
 (whereof  1 operations were pure point group operations)
 out of a pool of  8 trial point group operations.

The static configuration has the point symmetry C_1 .

Analysis of symmetry for dynamics (positions and initial velocities):
 Subroutine PRICEL returns:
 Original cell was already a primitive cell.

[...]

The dynamic configuration has the point symmetry C_1 .

Analysis of constrained symmetry for selective dynamics:
 Subroutine PRICEL returns:
 Original cell was already a primitive cell.

 Routine SETGRP: Setting up the symmetry group for a
 simple orthorhombic supercell.

 Subroutine GETGRP returns: Found  1 space group operations
 (whereof  1 operations were pure point group operations)
 out of a pool of  8 trial point group operations.

The constrained configuration has the point symmetry C_1 .

 Subroutine INISYM returns: Found  1 space group operations
 (whereof  1 operations are pure point group operations),
 and found     1 'primitive' translations

 KPOINTS: KPOINTS created by Atomic Simulation Env

Automatic generation of k-mesh.
Space group operators:
 irot       det(A)        alpha          n_x          n_y          n_z        tau_x        tau_y        tau_z
    1     1.000000     0.000000     1.000000     0.000000     0.000000     0.000000     0.000000     0.000000

 Subroutine IBZKPT returns following result:

 Found      5 irreducible k-points:

 Following reciprocal coordinates:
            Coordinates               Weight
  0.000000  0.000000  0.000000      1.000000
  0.333333  0.000000  0.000000      2.000000
  0.000000  0.333333  0.000000      2.000000
  0.333333  0.333333  0.000000      2.000000
 -0.333333  0.333333  0.000000      2.000000

 Following cartesian coordinates:
            Coordinates               Weight
  0.000000  0.000000  0.000000      1.000000
  0.014238  0.000000  0.000000      2.000000
  0.000000  0.018395  0.000000      2.000000
  0.014238  0.018395  0.000000      2.000000
 -0.014238  0.018395  0.000000      2.000000

 SYSTEM =  unknown system
 POSCAR =   C  H  O Si  W

 Startparameter for this run:
   NWRITE =      2    write-flag & timer
   PREC   = normal    normal or accurate (medium, high low for compatibility)
   ISTART =      0    job   : 0-new  1-cont  2-samecut
   ICHARG =      2    charge: 1-file 2-atom 10-const
   ISPIN  =      1    spin polarized calculation?
   LNONCOLLINEAR =      F non collinear calculations
   LSORBIT =      F    spin-orbit coupling
   INIWAV =      1    electr: 0-lowe 1-rand  2-diag
   LASPH  =      T    aspherical Exc in radial PAW
   METAGGA=      F    non-selfconsistent MetaGGA calc.

 Electronic Relaxation 1
   ENCUT  =  500.0 eV  36.75 Ry    6.06 a.u.  42.68 33.04 49.01*2*pi/ulx,y,z
   ENINI  =  500.0     initial cutoff
   ENAUG  =  644.9 eV  augmentation charge cutoff
   NELM   =     60;   NELMIN=  2; NELMDL=  0     # of ELM steps
[...]
   0.370E+02 0.619E+01 -.217E+03   -.405E+02 -.876E+01 0.224E+03   0.345E+01 0.259E+01 -.721E+01   0.183E-02 0.161E-02 -.180E-02
   0.967E+02 0.274E+02 0.131E+03   -.104E+03 -.309E+02 -.130E+03   0.737E+01 0.362E+01 -.921E+00   0.301E-04 -.544E-04 -.101E-03
   0.276E+02 0.735E+02 0.168E+03   -.299E+02 -.809E+02 -.171E+03   0.240E+01 0.751E+01 0.249E+01   -.349E-05 -.132E-03 -.147E-03
   0.836E+02 0.519E+02 0.179E+03   -.908E+02 -.548E+02 -.181E+03   0.733E+01 0.292E+01 0.253E+01   -.179E-04 -.736E-05 0.814E-04
   0.479E+02 -.600E+02 0.163E+03   -.535E+02 0.657E+02 -.164E+03   0.572E+01 -.579E+01 0.116E+01   0.303E-04 0.199E-04 0.311E-04
   0.931E+02 0.257E+02 0.148E+03   -.101E+03 -.271E+02 -.149E+03   0.814E+01 0.144E+01 0.300E+00   0.119E-03 -.123E-03 0.858E-04
   -.675E+01 -.674E+02 0.387E+02   0.903E+01 0.744E+02 -.363E+02   -.236E+01 -.718E+01 -.261E+01   -.305E-03 -.172E-03 -.279E-03
   0.251E+02 -.874E+02 -.139E+02   -.253E+02 0.958E+02 0.142E+02   0.187E+00 -.839E+01 -.363E+00   0.296E-03 -.250E-03 0.943E-04
   -.376E+02 -.790E+02 0.194E+03   0.397E+02 0.860E+02 -.198E+03   -.220E+01 -.716E+01 0.348E+01   -.486E-04 -.720E-04 -.466E-04
   0.551E+02 -.441E+02 -.844E+02   -.607E+02 0.490E+02 0.809E+02   0.557E+01 -.496E+01 0.350E+01   0.391E-03 0.118E-03 0.429E-05
   -.328E+02 -.690E+02 -.118E+03   0.334E+02 0.772E+02 0.119E+03   -.514E+00 -.827E+01 -.102E+01   -.124E-02 -.178E-03 -.103E-03
   0.598E+02 -.125E+02 -.722E+02   -.667E+02 0.109E+02 0.689E+02   0.689E+01 0.152E+01 0.329E+01   -.824E-04 -.312E-03 -.595E-04
   0.195E+01 -.806E+02 -.195E+03   -.222E+01 0.874E+02 0.199E+03   0.263E+00 -.682E+01 -.483E+01   0.360E-03 0.196E-03 -.163E-03
   -.339E+02 0.208E+02 0.986E+02   0.387E+02 -.256E+02 -.103E+03   -.492E+01 0.497E+01 0.435E+01   0.807E-04 0.829E-04 0.511E-04
   -.751E+02 0.279E+02 0.964E+02   0.816E+02 -.310E+02 -.960E+02   -.678E+01 0.325E+01 -.455E+00   0.202E-03 0.187E-03 -.200E-03
   0.340E+02 0.469E+02 -.199E+03   -.376E+02 -.488E+02 0.206E+03   0.353E+01 0.189E+01 -.737E+01   0.884E-03 -.400E-04 -.544E-04
   0.280E+02 -.476E+02 0.164E+03   -.303E+02 0.547E+02 -.166E+03   0.234E+01 -.731E+01 0.185E+01   0.185E-04 0.948E-04 -.380E-03
   -.292E+02 0.711E+02 0.148E+03   0.291E+02 -.786E+02 -.148E+03   0.926E-01 0.772E+01 -.584E+00   0.146E-03 0.299E-03 0.493E-04
   -.614E+02 -.776E+02 0.116E+03   0.660E+02 0.842E+02 -.117E+03   -.469E+01 -.669E+01 0.105E+01   0.111E-03 0.129E-03 -.449E-04
   0.121E+03 -.103E+02 0.128E+03   -.129E+03 0.105E+02 -.127E+03   0.828E+01 -.202E+00 -.538E+00   0.820E-04 0.842E-04 0.694E-04
   0.371E+02 0.479E+01 0.713E+02   -.447E+02 -.391E+01 -.707E+02   0.779E+01 -.934E+00 -.610E+00   -.128E-03 0.253E-03 0.474E-05
   -.619E+02 -.429E+02 -.207E+03   0.656E+02 0.478E+02 0.213E+03   -.376E+01 -.489E+01 -.573E+01   0.727E-03 -.674E-03 -.404E-03
   0.447E+02 0.597E+02 0.775E+02   -.480E+02 -.659E+02 -.740E+02   0.328E+01 0.627E+01 -.354E+01   0.184E-04 0.936E-04 -.105E-03
   -.153E+02 -.345E+02 0.129E+03   0.156E+02 0.409E+02 -.132E+03   -.264E+00 -.677E+01 0.317E+01   -.304E-04 0.293E-04 0.635E-05
   0.194E+02 -.452E+02 0.180E+03   -.236E+02 0.509E+02 -.183E+03   0.441E+01 -.594E+01 0.228E+01   -.299E-04 -.502E-04 -.963E-04
   -.163E+01 -.366E+02 0.238E+03   0.216E+01 0.403E+02 -.245E+03   -.515E+00 -.386E+01 0.729E+01   -.252E-04 -.378E-05 -.996E-04
   0.441E+02 -.134E+02 0.192E+03   -.502E+02 0.168E+02 -.196E+03   0.618E+01 -.353E+01 0.405E+01   0.348E-04 -.381E-04 -.500E-04
   -.137E+01 0.499E+02 0.229E+03   0.733E+00 -.517E+02 -.237E+03   0.646E+00 0.182E+01 0.809E+01   -.359E-04 -.476E-04 -.396E-04
   0.660E+02 0.546E+01 -.687E+02   -.737E+02 -.571E+01 0.718E+02   0.772E+01 0.258E+00 -.308E+01   -.197E-02 -.343E-03 0.476E-04
   0.841E+02 -.418E+02 -.145E+03   -.914E+02 0.459E+02 0.146E+03   0.725E+01 -.411E+01 -.725E+00   0.190E-02 -.357E-03 -.116E-02
   0.201E+02 0.789E+02 -.105E+03   -.189E+02 -.869E+02 0.104E+03   -.122E+01 0.797E+01 0.123E+01   -.168E-03 0.149E-02 0.461E-03
   0.175E+02 0.167E+02 -.378E+01   -.229E+02 -.192E+02 0.823E+01   0.559E+01 0.252E+01 -.459E+01   -.187E-04 0.101E-03 -.135E-03
   0.279E+02 -.521E+02 0.540E+02   -.330E+02 0.564E+02 -.501E+02   0.525E+01 -.446E+01 -.402E+01   -.285E-07 -.192E-03 -.140E-03
   0.145E+02 -.264E+02 0.208E+03   -.166E+02 0.272E+02 -.216E+03   0.214E+01 -.795E+00 0.797E+01   -.316E-04 0.922E-04 -.327E-04
   -.764E+02 -.274E+02 0.198E+03   0.835E+02 0.284E+02 -.202E+03   -.723E+01 -.106E+01 0.394E+01   -.428E-04 0.314E-04 -.372E-04
   -.830E+02 -.368E+02 0.135E+03   0.899E+02 0.407E+02 -.135E+03   -.716E+01 -.403E+01 -.163E+00   0.858E-04 0.102E-05 -.141E-03
   -.102E+03 0.109E+02 0.155E+03   0.110E+03 -.129E+02 -.156E+03   -.796E+01 0.202E+01 0.105E+01   -.331E-04 0.123E-04 -.123E-03
   0.844E+00 -.696E+02 0.100E+03   0.455E+00 0.763E+02 -.964E+02   -.133E+01 -.693E+01 -.420E+01   -.785E-04 0.126E-03 -.288E-04
   -.328E+02 -.495E+02 0.218E+03   0.367E+02 0.539E+02 -.224E+03   -.406E+01 -.454E+01 0.558E+01   0.615E-04 0.155E-03 -.890E-04
   0.753E+02 0.224E+02 0.109E+03   -.812E+02 -.265E+02 -.111E+03   0.621E+01 0.437E+01 0.246E+01   -.128E-04 0.205E-04 0.110E-04
   0.546E+02 0.496E+02 -.109E+03   -.600E+02 -.556E+02 0.107E+03   0.549E+01 0.604E+01 0.174E+01   -.223E-03 -.293E-04 0.595E-03
   -.160E+02 -.698E+02 -.195E+03   0.184E+02 0.758E+02 0.200E+03   -.234E+01 -.604E+01 -.535E+01   -.308E-03 -.111E-02 0.716E-05
   0.420E+02 -.877E+01 -.222E+03   -.456E+02 0.873E+01 0.229E+03   0.359E+01 0.439E-01 -.759E+01   0.637E-04 0.204E-03 0.408E-03
   0.225E+02 -.745E+02 -.199E+03   -.222E+02 0.813E+02 0.204E+03   -.360E+00 -.680E+01 -.489E+01   0.310E-03 -.232E-03 0.436E-03
   0.270E+02 0.402E+02 -.697E+02   -.276E+02 -.425E+02 0.646E+02   0.608E+00 0.236E+01 0.520E+01   -.772E-03 -.885E-03 0.947E-03
   0.189E+02 0.698E+02 -.143E+03   -.188E+02 -.752E+02 0.143E+03   -.111E+00 0.540E+01 -.800E+00   -.413E-03 0.705E-03 0.845E-03
   0.734E+02 -.374E+01 -.115E+03   -.784E+02 0.499E+01 0.113E+03   0.497E+01 -.128E+01 0.205E+01   -.424E-04 0.869E-03 0.118E-02
   0.245E+02 -.697E+01 -.179E+03   -.240E+02 0.955E+01 0.184E+03   -.549E+00 -.265E+01 -.491E+01   -.148E-03 0.132E-02 0.411E-05
   -.748E+02 0.165E+02 -.108E+03   0.790E+02 -.167E+02 0.104E+03   -.431E+01 0.257E+00 0.376E+01   -.533E-03 0.621E-03 0.199E-02
   -.407E+02 0.693E+02 -.101E+03   0.430E+02 -.731E+02 0.977E+02   -.230E+01 0.379E+01 0.374E+01   -.381E-03 -.475E-03 0.963E-03
   -.134E+02 0.506E+02 -.185E+03   0.129E+02 -.528E+02 0.190E+03   0.543E+00 0.211E+01 -.534E+01   -.676E-03 0.933E-03 0.562E-03
   -.476E+02 -.706E+01 -.184E+03   0.493E+02 0.832E+01 0.189E+03   -.169E+01 -.128E+01 -.534E+01   -.146E-02 0.111E-02 0.445E-03
   -.158E+03 0.461E+02 0.339E+03   0.172E+03 -.575E+02 -.330E+03   -.142E+02 0.115E+02 -.949E+01   -.106E-02 0.771E-03 -.455E-03
   -.178E+03 0.398E+02 0.388E+03   0.206E+03 -.555E+02 -.398E+03   -.280E+02 0.162E+02 0.953E+01   -.199E-03 0.241E-03 -.942E-03
   -.170E+03 0.143E+03 -.953E+03   0.165E+03 -.182E+03 0.955E+03   0.481E+01 0.387E+02 -.158E+01   0.177E-01 0.328E-02 0.590E-02
   -.319E+02 0.293E+02 0.880E+02   0.549E+02 -.385E+02 -.118E+03   -.230E+02 0.925E+01 0.297E+02   -.192E-02 -.133E-02 0.109E-03
[...]
   -.534E+02 -.138E+02 0.213E+03   0.528E+02 0.127E+02 -.215E+03   0.453E+00 0.709E+00 0.931E+00   -.364E-03 -.138E-02 -.114E-02
   0.625E+02 -.411E+02 -.137E+03   -.571E+02 0.398E+02 0.134E+03   -.542E+01 0.134E+01 0.304E+01   -.193E-02 -.641E-02 -.167E-02
   -.881E+02 -.239E+02 0.379E+03   0.882E+02 0.218E+02 -.381E+03   -.181E+00 0.200E+01 0.171E+01   -.526E-03 0.392E-03 -.314E-03
   -.556E+02 0.958E+02 -.271E+03   0.554E+02 -.959E+02 0.273E+03   0.137E+00 0.683E-01 -.176E+01   0.218E-02 -.387E-03 0.395E-03
   -.878E+01 0.912E+00 0.288E+02   0.946E+01 -.416E+01 -.312E+02   -.102E+01 0.968E+01 0.189E+01   -.252E-03 -.285E-03 -.811E-03
   -.270E+02 0.858E+02 0.456E+03   0.270E+02 -.842E+02 -.458E+03   -.433E-01 -.173E+01 0.156E+01   -.297E-03 -.405E-03 -.935E-05
   0.971E+02 -.579E+01 -.261E+02   -.957E+02 0.802E+01 0.264E+02   -.136E+01 -.234E+01 -.627E+00   -.386E-03 0.805E-03 0.413E-03
   0.112E+03 0.181E+02 0.145E+03   -.106E+03 -.109E+02 -.149E+03   -.282E+02 -.231E+02 0.856E+01   0.146E-03 -.283E-03 -.155E-02
   -.114E+02 0.983E+02 -.421E+03   0.129E+02 -.966E+02 0.420E+03   -.151E+01 -.174E+01 0.436E+00   0.268E-02 0.120E-02 -.122E-02
   -.283E+02 0.328E+02 0.132E+03   0.283E+02 -.336E+02 -.132E+03   -.187E+00 0.792E+00 -.108E+01   0.487E-03 -.434E-03 0.109E-02
   0.609E+02 -.198E+02 -.366E+03   -.614E+02 0.205E+02 0.367E+03   0.454E+00 -.756E+00 -.850E+00   0.176E-02 0.250E-03 0.449E-03
   0.570E+02 -.523E+02 -.311E+03   -.578E+02 0.474E+02 0.311E+03   0.945E+00 0.484E+01 -.984E-01   -.147E-02 0.293E-02 0.143E-02
   0.826E+02 0.623E+02 -.185E+03   -.782E+02 -.589E+02 0.191E+03   -.447E+01 -.341E+01 -.530E+01   -.269E-03 -.132E-02 -.345E-02
   0.445E+02 -.377E+02 -.759E+03   -.451E+02 0.376E+02 0.761E+03   0.622E+00 0.458E-01 -.166E+01   -.623E-02 0.346E-02 0.220E-01
   0.331E+03 -.207E+03 -.963E+02   0.215E-11 0.611E-12 0.909E-12   -.330E+03 0.207E+03 0.964E+02   -.458E-01 0.773E-01 0.456E-01

 POSITION                                       TOTAL-FORCE (eV/Angst)
     10.32889      7.20414     18.95365         0.000553     -0.006894     -0.009527
      9.24927      6.76959     19.93310         0.003312     -0.015851     -0.010132
     12.85585      8.21886     19.54333         0.008847     -0.011071     -0.011545
     11.86780      6.96414     19.47351         0.001673     -0.002332     -0.006753
     17.84399      1.85144     17.51650         0.000006     -0.002925     -0.002405
     21.68887      5.04983      9.57948         0.099913      0.072963     -0.026374
     18.57311      3.75615     10.03977         0.037240      0.113378      0.045324
     22.81522     17.09936      8.74523         0.108521      0.056449      0.029685
     14.64921     17.45932     10.08748         0.054150     -0.006891     -0.058492
     19.20987     18.03075      9.91976         0.119960      0.023210     -0.000654
     17.55831      2.55833     12.31361        -0.110447     -0.223709     -0.130969
     21.43036      4.51992     13.70181        -0.003143      0.004282     -0.004303
     13.66032      5.51363      8.22435        -0.101647     -0.127338      0.043756
     20.89248      6.07011     16.56580        -0.000933     -0.003416      0.004478
     14.24275      6.64898     16.33996        -0.006622     -0.009468      0.005368
     13.89478     15.76984     15.54110         0.006723      0.002257     -0.000761
      0.77128      6.10785     17.56781         0.000745     -0.010641     -0.002624
     21.89589      7.60212     12.20778        -0.092503      0.136972      0.068140
     17.46807      9.60991     11.35790        -0.338971      0.169316     -0.040861
     18.80182      7.00287     17.14696         0.003878     -0.005339     -0.008179
     13.83846     10.30524     10.16285         0.095536     -0.182639      0.071209
     16.81947     11.70510     10.30871        -0.032209      0.243077     -0.016758
     19.69248      9.82944     11.28016        -0.107342     -0.097489      0.013410
      0.11154     10.94157      9.61829         0.110000     -0.007616     -0.030672
     19.39295     12.90878     12.57986         0.218120     -0.037620     -0.052190
     20.57664     10.84622     19.37170        -0.007644     -0.002476     -0.004818
     12.17365     17.85965     11.33680         0.011755      0.122333     -0.097558
      5.22293     17.76162     10.57067        -0.009979     -0.359611      0.121636
      5.06559      4.31016      8.58199         0.180730     -0.199451      0.070133
      3.68730      5.97650      7.50000         0.015277     -0.078072      0.116878
      7.99605      2.81941      8.89229         0.087977     -0.090261      0.065210
      5.21407      0.82921      8.67630         0.004723      0.017407      0.149868
     11.96707     14.98035     14.70200         0.000960     -0.005806      0.000951
      8.46493      4.04960     17.40190        -0.007135     -0.007421      0.001679
      5.70867      1.72065     16.11369        -0.001764      0.002215     -0.000553
      7.38348      8.82752     11.89413         0.250068      0.103011     -0.176892
      9.57419      7.95042     10.90633         0.126082     -0.110461     -0.114427
      9.32939     14.37220     10.45190         0.065501     -0.001967      0.124971
      5.71709     11.87720      7.91250        -0.103794     -0.017194      0.042137
      7.29827      7.58330      9.92689        -0.160191     -0.088091     -0.009367
      9.49268     10.58787      9.10862        -0.109384      0.039612     -0.001820
      3.26254      8.84269      9.46105        -0.023247     -0.201824     -0.121847
     13.88920     12.64839      9.47364        -0.128699     -0.096877      0.167158
     10.98006     15.61013     11.93160         0.307731      0.324540      0.160632
      2.85399      5.92548     16.49711         0.006862      0.000275     -0.003195
      1.72341     12.04209     17.36753        -0.003417     -0.000286     -0.003148
      5.51417      7.24616     18.34048         0.001787     -0.001879     -0.007664
      5.82482     14.78010     18.02078        -0.004133     -0.012993     -0.005846
     10.21638      6.74539     17.96511         0.001209      0.002821     -0.005514
      9.27985      5.67825     20.08970         0.001790     -0.015788     -0.017035
      8.26179      7.02395     19.51840        -0.000896     -0.012264     -0.009109
      9.36550      7.27993     20.89915        -0.000101     -0.020025     -0.007256
     13.67751      8.15404     18.82632         0.001491     -0.013166     -0.012932
     12.30034      6.25256     18.76524        -0.003197     -0.009943     -0.008834
     11.76023      6.57126     20.48816         0.003216     -0.008949     -0.008278
     13.17582      8.44722     20.56225         0.012865     -0.018235     -0.009266
      8.63740     11.74900     11.80180        -0.239976      0.116406     -0.205426
      8.11940      9.13372     11.30145        -0.109509      0.598763      0.023054
     20.15125     10.25984     18.72854        -0.019651     -0.003664      0.001755
      8.16212     17.40369     14.26793         0.008150      0.003604     -0.006895
[...]
      5.71814      6.71222     11.31648         0.039342     -0.117069     -0.126043
     15.41693      5.98005     12.10687        -0.140801     -0.420076     -0.915438
     10.78532      5.78800     14.22097        -0.006778     -0.002791      0.001868
      7.89661     10.69049     10.72869        -0.093523     -0.057368     -0.031982
     18.81451      8.63687     15.58958        -0.007519     -0.006674     -0.001302
      1.62029     16.28844     12.91761        -0.360618      6.436983     -0.520954
      4.96103      2.61769     10.04353        -0.063595     -0.049881      0.046221
      1.83153      8.95162     13.29887         0.026590     -0.107339     -0.302609
     13.05344     15.44546     12.76235       -22.322599    -15.879081      4.730694
     16.81763     10.58792     16.38957         0.000431     -0.003886      0.000338
      6.71066      3.80730     12.34244        -0.194486      0.032209     -0.842369
      2.06283     11.33226     15.26287        -0.002568      0.005122     -0.005021
      8.25770      0.38265     15.55296         0.001695      0.006206     -0.012864
     11.38223      8.75984     15.43131        -0.005651      0.001340      0.005689
     11.11124      9.12202     18.86484         0.009189     -0.005054     -0.014368
    total drift:                                0.268474      0.382546      0.236854

  FREE ENERGIE OF THE ION-ELECTRON SYSTEM (eV)
  free  energy   TOTEN  =     -1887.30360847 eV

  energy  without entropy=    -1887.30360847  energy(sigma->0) =    -1887.30360847

 d Force = 0.6587349E-03[ 0.247E-03, 0.107E-02]  d Energy = 0.6503602E-03 0.837E-05
 d Force =-0.1015519E+01[-0.102E+01,-0.101E+01]  d Ewald  =-0.1015519E+01 0.608E-07

 stress matrix after NEB project (eV)
    -32.55583     -0.02787      0.36350
     -0.02787    -32.99169     -0.23329
      0.36350     -0.23329    -24.60414
  FORCES: max atom, RMS     0.046557    0.009718
  FORCE total and by dimension    0.161447    0.045876
  Stress total and by dimension   52.479253   32.991692
 Quasi-Newton relaxation of ions (Broydens 2nd method)
  g(Force)  = 0.126E-02   g(Stress)= 0.000E+00

 retain information from N=  3 steps
 eigenvalues of (default step * inverse Hessian matrix)
  average eigenvalue of G=   1.6802
 eigenvalue spectrum of G is  4.6200  0.2103  0.2103

 reached required accuracy - stopping structural energy minimisation