 vasp.5.4.4.18Apr17-6-g9f103f2a35 (build Oct 20 2021 08:33:53) complex
 executed on             LinuxGNU date 2024.04.14  17:12:32

 INCAR:
 POTCAR:    PAW_PBE C 08Apr2002
 POTCAR:    PAW_PBE H 15Jun2001
 POTCAR:    PAW_PBE O 08Apr2002
 POTCAR:    PAW_PBE Si 05Jan2001
 POTCAR:    PAW_PBE W 08Apr2002
 POTCAR:    PAW_PBE C 08Apr2002
   VRHFIN =C: s2p2

   TITEL  = PAW_PBE C 08Apr2002
   POMASS =   12.011; ZVAL   =    4.000    mass and valenz
   ENMAX  =  400.000; ENMIN  =  300.000 eV

 POTCAR:    PAW_PBE H 15Jun2001
   VRHFIN =H: ultrasoft test

   TITEL  = PAW_PBE H 15Jun2001
   POMASS =    1.000; ZVAL   =    1.000    mass and valenz
   ENMAX  =  250.000; ENMIN  =  200.000 eV

 POTCAR:    PAW_PBE O 08Apr2002
   VRHFIN =O: s2p4

[...]

 POTCAR:    PAW_PBE Si 05Jan2001
   VRHFIN =Si: s2p2

   TITEL  = PAW_PBE Si 05Jan2001
   POMASS =   28.085; ZVAL   =    4.000    mass and valenz
   ENMAX  =  245.345; ENMIN  =  184.009 eV

 POTCAR:    PAW_PBE W 08Apr2002
   VRHFIN =W : 6s5d

   TITEL  = PAW_PBE W 08Apr2002
   POMASS =  183.850; ZVAL   =    6.000    mass and valenz
   ENMAX  =  223.057; ENMIN  =  167.293 eV

 Optimization of the real space projectors (new method)

 maximal supplied QI-value         = 25.13
 optimisation between [QCUT,QGAM] = [ 11.31, 22.87] = [ 35.82,146.48] Ry
 Optimized for a Real-space Cutoff    1.00 Angstroem

   l    n(q)    QCUT    max X(q) W(low)/X(q) W(high)/X(q)  e(spline)
   0      7    11.310   115.676    0.43E-03    0.13E-02    0.19E-06
   0      7    11.310    87.132    0.43E-03    0.13E-02    0.18E-06
   1      6    11.310     4.429    0.42E-03    0.74E-03    0.11E-06
   1      6    11.310     2.733    0.34E-03    0.55E-03    0.92E-07
 Optimization of the real space projectors (new method)

[...]

   l    n(q)    QCUT    max X(q) W(low)/X(q) W(high)/X(q)  e(spline)
   0      8    11.310   159.560    0.27E-03    0.30E-03    0.39E-07
   0      8    11.310   115.863    0.27E-03    0.30E-03    0.38E-07
   1      7    11.310    88.339    0.28E-03    0.28E-03    0.77E-07
   1      7    11.310    48.592    0.27E-03    0.27E-03    0.74E-07
 Optimization of the real space projectors (new method)

 maximal supplied QI-value         = 13.61
 optimisation between [QCUT,QGAM] = [ 11.43, 22.86] = [ 36.58,146.31] Ry
 Optimized for a Real-space Cutoff    1.56 Angstroem

   l    n(q)    QCUT    max X(q) W(low)/X(q) W(high)/X(q)  e(spline)
   2     10    11.429   130.855    0.22E-03    0.64E-03    0.11E-05
   2     10    11.429   114.007    0.22E-03    0.64E-03    0.11E-05
   0     11    11.429    84.709    0.39E-04    0.67E-04    0.23E-06
   0     11    11.429    49.163    0.35E-04    0.62E-04    0.21E-06
   1     10    11.429    15.765    0.84E-04    0.15E-03    0.24E-06
   1     10    11.429    10.638    0.58E-04    0.12E-03    0.19E-06

  PAW_PBE C 08Apr2002                   :
  PAW_PBE H 15Jun2001                   :
  PAW_PBE O 08Apr2002                   :
  PAW_PBE Si 05Jan2001                  :
  PAW_PBE W 08Apr2002                   :

 POSCAR:  C  H  O Si  W
  positions in direct lattice
  velocities in cartesian coordinates
 exchange correlation table for  LEXCH =        9
   RHO(1)=    0.500       N(1)  =     2000
   RHO(2)=  100.500       N(2)  =     4000

 VTST: version 3.2, (02/03/18)

 CHAIN: initializing optimizer

 OPT: Using LBFGS optimizer
 OPT: LBFGS, Init
 OPT: LBFGS, IMAGES              8
 OPT: LBFGS, MAXMOVE      0.200000
 OPT: LBFGS, LGLOBAL      T
 OPT: LBFGS, INVCURV      0.010000
 OPT: LBFGS, LLINEOPT      F
 OPT: LBFGS, FDSTEP       0.005000
 OPT: LBFGS, LAUTOSCALE      T
 OPT: LBFGS, DAMPING      2.000000

 CHAIN: Read ICHAIN            0
 CHAIN: Running the NEB
 NEB:          SPRING     -5.000000
 NEB:          LCLIMB      T
 NEB:     LTANGENTOLD      F
 NEB:           LDNEB      F
 NEB:        LDNEBORG      F
 NEB:        LNEBCELL      F
 NEB:          EFIRST      0.000000
 NEB:           ELAST      0.000000

 POSCAR:  C  H  O Si  W
  positions in cartesian coordinates

 POSCAR:  C  H  O Si  W
  positions in cartesian coordinates

 ion  position               nearest neighbor table
   1  0.559  0.525  0.732-  48 1.09  47 1.10 271 1.92
   2  0.553  0.363  0.734-  49 1.11  50 1.11 204 1.24
   3  0.763  0.100  0.652- 125 0.97
   4  0.926  0.279  0.356-  73 0.98
   5  0.793  0.207  0.373- 108 0.97
   6  0.975  0.944  0.325- 117 0.97
   7  0.626  0.963  0.375- 119 0.98
   8  0.821  0.995  0.369- 137 0.97
   9  0.750  0.141  0.458- 175 0.98
  10  0.916  0.249  0.509- 180 0.97
  11  0.583  0.304  0.306- 185 0.97
  12  0.891  0.335  0.616-  91 0.98
  13  0.576  0.342  0.622- 136 0.97
  14  0.593  0.871  0.578- 178 0.99
  15  0.034  0.338  0.652- 184 0.97
  16  0.935  0.420  0.454- 173 0.98
  17  0.746  0.530  0.422-  87 1.00
  18  0.797  0.381  0.634- 165 0.97
  19  0.591  0.569  0.378-  99 0.99
  20  0.718  0.646  0.383- 122 0.99
  21  0.841  0.542  0.420- 128 0.98
  22  0.005  0.604  0.358- 133 0.97
  23  0.828  0.712  0.468- 174 0.99
  24  0.881  0.600  0.720-  53 0.97
  25  0.520  0.986  0.422- 135 0.99
  26  0.223  0.980  0.393- 176 1.00
  27  0.216  0.238  0.319- 191 0.99
  28  0.158  0.330  0.279- 182 0.97
  29  0.342  0.156  0.331- 183 0.98
  30  0.223  0.046  0.323- 190 0.97
  31  0.511  0.825  0.547- 193 0.97
  32  0.368  0.232  0.646-  78 0.97
  33  0.244  0.093  0.598- 129 0.98
  34  0.315  0.487  0.442-  52 0.99
  35  0.409  0.439  0.406- 141 0.98
  36  0.398  0.793  0.389- 179 0.97
  37  0.244  0.655  0.294- 187 0.97
  38  0.312  0.418  0.369- 188 0.98
  39  0.405  0.584  0.339- 189 0.97
  40  0.139  0.488  0.352- 181 0.98
  41  0.593  0.698  0.352-  82 0.97
  42  0.469  0.861  0.444- 192 0.99
  43  0.122  0.323  0.611- 101 0.97
  44  0.074  0.664  0.646- 132 0.97
  45  0.239  0.389  0.683- 177 0.97
  46  0.246  0.815  0.670- 186 0.97
  47  0.596  0.544  0.710-   1 1.10
  48  0.564  0.527  0.772-   1 1.09
  49  0.538  0.384  0.771-   2 1.11
  50  0.596  0.336  0.732-   2 1.11
  51  0.369  0.648  0.439- 225 1.66 260 1.68
  52  0.347  0.504  0.420-  34 0.99 260 1.67
  53  0.861  0.568  0.697-  24 0.97 231 1.64
  54  0.349  0.958  0.530- 236 1.68 269 1.69
  55  0.033  0.933  0.529- 251 1.63 262 1.66
  56  0.636  0.079  0.489- 229 1.60 218 1.65
  57  0.069  0.052  0.395- 217 1.64 209 1.65
  58  0.452  0.130  0.421- 234 1.65 215 1.65
  59  0.806  0.214  0.483- 233 1.67 230 1.69
  60  0.973  0.181  0.599- 211 1.63 241 1.65
[...]
 213  0.214  0.476  0.510- 172 1.61 171 1.63 131 1.66 168 1.66 224 3.10 257 3.14
 214  0.915  0.756  0.496-  96 1.65 174 1.65  80 1.65  85 1.66 227 2.99 235 3.03
 215  0.521  0.110  0.426- 107 1.64  58 1.65 135 1.66 115 1.67 246 3.08 229 3.12
 216  0.418  0.169  0.588-  78 1.64 195 1.65  95 1.68 155 1.69 269 3.13 256 3.14
 217  0.083  0.139  0.407-  57 1.64 138 1.65  83 1.65 151 1.66 210 3.11 209 3.13 263 3.14
 218  0.702  0.045  0.487-  90 1.64 159 1.65  56 1.65 175 1.66 229 3.09 219 3.10
 219  0.665  0.898  0.437-  89 1.53 159 1.66 119 1.66 150 1.67 265 2.83 252 3.06 218 3.10
 220  0.650  0.504  0.430-  99 1.65 157 1.65  87 1.67  93 1.68 228 3.07
 221  0.198  0.912  0.464- 130 1.50 176 1.64 153 1.66 109 1.67 239 3.01 236 3.06 262 3.07
 222  0.214  0.366  0.604-  77 1.63 172 1.63 101 1.64 177 1.65
 223  0.674  0.814  0.595- 178 1.62 110 1.64  92 1.68 200 1.71 250 2.90
 224  0.217  0.642  0.538- 170 1.63 163 1.63 196 1.65 131 1.65 239 3.09 213 3.10 268 3.12
 225  0.369  0.735  0.459-  67 1.65  98 1.66  51 1.66 179 1.68
 226  0.797  0.888  0.596- 134 1.66  92 1.66 103 1.66 199 1.68 235 2.86 227 2.99 253 3.15
 227  0.880  0.912  0.512-  66 1.60  85 1.62 103 1.65 111 1.66 214 2.99 226 2.99 251 3.05 242 3.13

 228  0.576  0.574  0.512-  93 1.58 160 1.63  94 1.63 127 1.65 238 3.00 220 3.07 270 3.14
 229  0.590  0.116  0.525-  56 1.60 115 1.60 152 1.62 142 1.65 256 2.85 218 3.09 215 3.12 240 3.13

[...]

 267  0.287  0.210  0.459- 167 1.63 116 1.63  61 1.66 146 1.67 245 3.03 263 3.12
 268  0.088  0.625  0.568- 156 1.63 132 1.64 102 1.64 163 1.65 264 3.09 224 3.12 244 3.14
 269  0.353  0.019  0.578- 155 1.64  63 1.66 202 1.69  54 1.69 236 2.38 255 2.74 216 3.13
 270  0.486  0.482  0.571- 127 1.64  71 1.65  79 1.68 121 1.68 247 2.95 228 3.14
 271  0.492  0.495  0.696- 205 1.72   1 1.92 118 1.95  71 1.98 204 2.46 247 3.13

  LATTYP: Found a simple orthorhombic cell.
 ALAT       =    18.1212369514
 B/A-ratio  =     1.2919258579
 C/A-ratio  =     1.4835282260

  Lattice vectors:

 A1 = (   0.0000000000, -18.1212369514,   0.0000000000)
 A2 = ( -23.4112945954,   0.0000000000,   0.0000000000)
 A3 = (   0.0000000000,   0.0000000000, -26.8833665073)

Analysis of symmetry for initial positions (statically):
 Subroutine PRICEL returns:
 Original cell was already a primitive cell.

 Routine SETGRP: Setting up the symmetry group for a
 simple orthorhombic supercell.

 Subroutine GETGRP returns: Found  1 space group operations
 (whereof  1 operations were pure point group operations)
 out of a pool of  8 trial point group operations.

The static configuration has the point symmetry C_1 .

Analysis of symmetry for dynamics (positions and initial velocities):
 Subroutine PRICEL returns:
 Original cell was already a primitive cell.

[...]

The dynamic configuration has the point symmetry C_1 .

Analysis of constrained symmetry for selective dynamics:
 Subroutine PRICEL returns:
 Original cell was already a primitive cell.

 Routine SETGRP: Setting up the symmetry group for a
 simple orthorhombic supercell.

 Subroutine GETGRP returns: Found  1 space group operations
 (whereof  1 operations were pure point group operations)
 out of a pool of  8 trial point group operations.

The constrained configuration has the point symmetry C_1 .

 Subroutine INISYM returns: Found  1 space group operations
 (whereof  1 operations are pure point group operations),
 and found     1 'primitive' translations

 KPOINTS: KPOINTS created by Atomic Simulation Env

Automatic generation of k-mesh.
Space group operators:
 irot       det(A)        alpha          n_x          n_y          n_z        tau_x        tau_y        tau_z
    1     1.000000     0.000000     1.000000     0.000000     0.000000     0.000000     0.000000     0.000000

 Subroutine IBZKPT returns following result:

 Found      5 irreducible k-points:

 Following reciprocal coordinates:
            Coordinates               Weight
  0.000000  0.000000  0.000000      1.000000
  0.333333  0.000000  0.000000      2.000000
  0.000000  0.333333  0.000000      2.000000
  0.333333  0.333333  0.000000      2.000000
 -0.333333  0.333333  0.000000      2.000000

 Following cartesian coordinates:
            Coordinates               Weight
  0.000000  0.000000  0.000000      1.000000
  0.014238  0.000000  0.000000      2.000000
  0.000000  0.018395  0.000000      2.000000
  0.014238  0.018395  0.000000      2.000000
 -0.014238  0.018395  0.000000      2.000000

 SYSTEM =  unknown system
 POSCAR =   C  H  O Si  W

 Startparameter for this run:
   NWRITE =      2    write-flag & timer
   PREC   = normal    normal or accurate (medium, high low for compatibility)
   ISTART =      0    job   : 0-new  1-cont  2-samecut
   ICHARG =      2    charge: 1-file 2-atom 10-const
[...]
   -.188E+01 -.366E+02 0.238E+03   0.240E+01 0.404E+02 -.245E+03   -.515E+00 -.386E+01 0.729E+01   0.947E-05 -.629E-04 -.131E-03
   0.442E+02 -.135E+02 0.191E+03   -.503E+02 0.170E+02 -.195E+03   0.618E+01 -.353E+01 0.405E+01   -.286E-04 -.571E-05 -.145E-03
   -.153E+01 0.499E+02 0.229E+03   0.890E+00 -.517E+02 -.236E+03   0.646E+00 0.182E+01 0.809E+01   0.213E-04 0.919E-05 -.208E-03
   0.671E+02 0.855E+01 -.687E+02   -.749E+02 -.897E+01 0.718E+02   0.770E+01 0.434E+00 -.304E+01   -.630E-04 0.790E-06 0.115E-03
   0.705E+02 -.660E+02 -.150E+03   -.764E+02 0.720E+02 0.150E+03   0.590E+01 -.592E+01 -.775E+00   0.412E-04 -.214E-04 -.260E-03
   0.159E+02 0.772E+02 -.105E+03   -.144E+02 -.851E+02 0.104E+03   -.151E+01 0.793E+01 0.128E+01   0.127E-04 0.562E-04 0.183E-04
   0.176E+02 0.169E+02 -.524E+01   -.230E+02 -.193E+02 0.969E+01   0.559E+01 0.252E+01 -.459E+01   0.831E-04 -.390E-04 0.121E-03
   0.285E+02 -.519E+02 0.533E+02   -.336E+02 0.563E+02 -.494E+02   0.525E+01 -.446E+01 -.402E+01   -.690E-04 0.677E-05 0.729E-04
   0.147E+02 -.263E+02 0.208E+03   -.168E+02 0.271E+02 -.216E+03   0.214E+01 -.794E+00 0.797E+01   0.335E-04 -.150E-04 -.562E-04
   -.765E+02 -.273E+02 0.198E+03   0.836E+02 0.283E+02 -.202E+03   -.723E+01 -.106E+01 0.394E+01   0.129E-03 0.385E-04 -.179E-03
   -.829E+02 -.368E+02 0.134E+03   0.899E+02 0.407E+02 -.134E+03   -.716E+01 -.403E+01 -.162E+00   0.663E-04 -.146E-04 0.354E-04
   -.102E+03 0.110E+02 0.154E+03   0.110E+03 -.129E+02 -.155E+03   -.796E+01 0.202E+01 0.105E+01   0.857E-05 -.322E-05 -.255E-04
   0.509E+00 -.695E+02 0.100E+03   0.789E+00 0.763E+02 -.960E+02   -.133E+01 -.693E+01 -.420E+01   -.304E-04 -.811E-04 -.239E-04
   -.325E+02 -.495E+02 0.218E+03   0.364E+02 0.539E+02 -.224E+03   -.406E+01 -.454E+01 0.559E+01   -.849E-04 0.968E-04 -.234E-03
   0.758E+02 0.228E+02 0.109E+03   -.818E+02 -.268E+02 -.111E+03   0.621E+01 0.436E+01 0.246E+01   -.561E-04 -.374E-04 -.235E-04
   0.499E+02 0.518E+02 -.109E+03   -.551E+02 -.581E+02 0.107E+03   0.522E+01 0.629E+01 0.177E+01   -.151E-04 0.466E-04 -.715E-04
   -.179E+02 -.685E+02 -.196E+03   0.203E+02 0.745E+02 0.201E+03   -.241E+01 -.598E+01 -.540E+01   0.142E-04 0.997E-05 -.109E-03
   0.231E+02 0.120E+02 -.227E+03   -.254E+02 -.139E+02 0.234E+03   0.237E+01 0.192E+01 -.783E+01   -.398E-04 -.129E-04 -.313E-03
   0.250E+02 -.745E+02 -.198E+03   -.250E+02 0.814E+02 0.203E+03   -.305E-01 -.688E+01 -.481E+01   -.239E-04 -.137E-04 -.112E-03
   -.553E+02 -.114E+02 -.132E+03   0.596E+02 0.132E+02 0.129E+03   -.432E+01 -.181E+01 0.293E+01   0.460E-04 0.407E-04 -.162E-03
   -.201E+02 -.106E+02 -.187E+03   0.206E+02 0.109E+02 0.192E+03   -.558E+00 -.270E+00 -.555E+01   0.786E-04 -.176E-04 -.158E-03
   0.157E+01 0.866E+01 -.187E+03   -.342E+01 -.671E+01 0.192E+03   0.188E+01 -.202E+01 -.513E+01   0.270E-04 0.144E-04 -.768E-04
   -.691E+02 0.444E+02 -.137E+03   0.742E+02 -.469E+02 0.136E+03   -.513E+01 0.247E+01 0.302E+00   0.338E-04 -.540E-04 -.163E-03
   -.156E+03 0.474E+02 0.333E+03   0.170E+03 -.588E+02 -.323E+03   -.142E+02 0.115E+02 -.952E+01   0.333E-03 -.363E-03 0.551E-03
   -.177E+03 0.407E+02 0.382E+03   0.205E+03 -.563E+02 -.391E+03   -.279E+02 0.162E+02 0.956E+01   0.337E-03 -.274E-03 0.764E-03
   -.172E+03 0.142E+03 -.956E+03   0.166E+03 -.180E+03 0.960E+03   0.653E+01 0.386E+02 -.354E+01   0.825E-04 0.337E-03 -.106E-02
   -.324E+02 0.293E+02 0.828E+02   0.552E+02 -.392E+02 -.112E+03   -.228E+02 0.984E+01 0.296E+02   0.380E-03 -.307E-03 0.617E-03
   -.105E+03 0.101E+03 -.390E+03   0.112E+03 -.110E+03 0.403E+03   -.684E+01 0.974E+01 -.125E+02   0.784E-05 -.165E-03 0.885E-03
   -.650E+02 -.216E+02 0.160E+03   0.580E+02 0.193E+02 -.181E+03   0.928E+01 0.135E+01 0.211E+02   0.153E-03 -.451E-05 0.450E-03
   -.533E+02 0.115E+03 0.658E+03   0.709E+02 -.124E+03 -.664E+03   -.179E+02 0.103E+02 0.589E+01   0.173E-04 0.260E-03 -.752E-03
   0.609E+02 0.185E+03 0.467E+03   -.683E+02 -.195E+03 -.456E+03   0.746E+01 0.110E+02 -.108E+02   -.174E-03 0.155E-03 -.790E-04
   0.733E+02 -.828E+02 0.673E+01   -.882E+02 0.820E+02 0.890E+01   0.155E+02 0.749E+00 -.158E+02   0.375E-03 0.382E-03 0.455E-03
   0.104E+03 0.690E+02 -.777E+03   -.123E+03 -.766E+02 0.790E+03   0.189E+02 0.763E+01 -.129E+02   -.849E-04 0.396E-03 -.133E-03
[...]
   -.515E+02 -.136E+02 0.213E+03   0.509E+02 0.124E+02 -.214E+03   0.432E+00 0.734E+00 0.943E+00   0.252E-03 -.344E-03 0.246E-03
   0.731E+02 -.389E+02 -.148E+03   -.676E+02 0.374E+02 0.144E+03   -.544E+01 0.155E+01 0.320E+01   -.481E-03 0.754E-04 0.168E-03
   -.875E+02 -.232E+02 0.376E+03   0.876E+02 0.212E+02 -.378E+03   -.179E+00 0.199E+01 0.172E+01   0.342E-03 -.216E-03 0.274E-03
   -.581E+02 0.946E+02 -.271E+03   0.577E+02 -.948E+02 0.273E+03   0.381E+00 0.191E+00 -.168E+01   0.457E-03 -.357E-03 -.259E-03
   -.102E+02 0.151E+01 0.278E+02   0.109E+02 -.470E+01 -.301E+02   -.100E+01 0.963E+01 0.182E+01   -.950E-04 -.177E-03 0.318E-03
   -.281E+02 0.853E+02 0.454E+03   0.280E+02 -.837E+02 -.456E+03   -.434E-01 -.173E+01 0.156E+01   0.106E-03 0.105E-03 -.522E-03
   0.934E+02 -.524E+01 -.295E+02   -.921E+02 0.749E+01 0.298E+02   -.130E+01 -.238E+01 -.633E+00   -.330E-03 -.232E-03 0.332E-03
   0.114E+03 0.190E+02 0.144E+03   -.109E+03 -.118E+02 -.148E+03   -.282E+02 -.231E+02 0.861E+01   -.346E-03 0.923E-04 0.150E-03
   -.140E+02 0.963E+02 -.417E+03   0.158E+02 -.948E+02 0.417E+03   -.174E+01 -.157E+01 0.444E+00   0.879E-04 -.534E-04 0.152E-03
   -.291E+02 0.307E+02 0.126E+03   0.291E+02 -.316E+02 -.126E+03   -.209E+00 0.831E+00 -.101E+01   0.178E-03 0.415E-03 0.174E-03
   0.570E+02 -.175E+02 -.368E+03   -.575E+02 0.183E+02 0.369E+03   0.447E+00 -.770E+00 -.893E+00   -.429E-04 -.135E-03 0.479E-04
   0.560E+02 -.557E+02 -.313E+03   -.570E+02 0.511E+02 0.313E+03   0.105E+01 0.466E+01 -.988E-01   0.149E-03 0.516E-04 0.275E-03
   0.104E+03 0.604E+02 -.191E+03   -.100E+03 -.569E+02 0.194E+03   -.433E+01 -.350E+01 -.268E+01   -.683E-03 -.277E-03 -.438E-03
   0.564E+02 0.305E+02 -.804E+03   -.561E+02 -.276E+02 0.807E+03   -.207E+00 -.296E+01 -.215E+01   0.522E-04 -.298E-03 -.871E-03
   0.310E+03 -.194E+03 -.150E+03   0.355E-12 -.711E-14 0.148E-11   -.309E+03 0.195E+03 0.150E+03   -.150E-02 0.748E-02 0.608E-02

 POSITION                                       TOTAL-FORCE (eV/Angst)
     13.09619      9.50483     19.67405        -0.001475      0.005904     -0.002738
     12.94938      6.57808     19.73517         0.001168      0.001454     -0.000688
     17.86818      1.81901     17.53798         0.001348      0.000194     -0.002251
     21.68887      5.04983      9.57948         0.100262      0.073041     -0.027628
     18.57311      3.75615     10.03977         0.036638      0.113720      0.044774
     22.81522     17.09936      8.74523         0.108533      0.055759      0.028061
     14.64921     17.45932     10.08748         0.053851     -0.005835     -0.059383
     19.20987     18.03075      9.91976         0.119277      0.023257     -0.001997
     17.55831      2.55833     12.31361        -0.112071     -0.221510     -0.131918
     21.43388      4.52087     13.67366        -0.000615      0.000357     -0.000159
     13.66032      5.51363      8.22435        -0.101082     -0.128157      0.042392
     20.86395      6.06431     16.56324         0.002085     -0.003257      0.003379
     13.49647      6.19406     16.71574         0.001279     -0.007114     -0.003584
     13.89283     15.78408     15.53889         0.005548     -0.000360      0.001491
      0.79375      6.12788     17.51975        -0.000335      0.018632      0.010476
     21.89589      7.60212     12.20778        -0.090396      0.136052      0.068568
     17.46807      9.60991     11.35790        -0.328862      0.163194     -0.038262
     18.65069      6.91064     17.04269         0.000792      0.002011     -0.004697
     13.83846     10.30524     10.16285         0.096495     -0.185543      0.065460
     16.81947     11.70510     10.30871        -0.030860      0.239881     -0.018037
     19.69248      9.82944     11.28016        -0.107919     -0.101701      0.013279
      0.11154     10.94157      9.61829         0.109823     -0.008770     -0.031331
     19.39295     12.90878     12.57986         0.224710     -0.039749     -0.053775
     20.61620     10.88023     19.34590        -0.002278     -0.003399     -0.001555
     12.17365     17.85965     11.33680         0.012411      0.126082     -0.097920
      5.22293     17.76162     10.57067        -0.010932     -0.357698      0.119978
      5.06559      4.31016      8.58199         0.178822     -0.199100      0.068948
      3.68730      5.97650      7.50000         0.014302     -0.079223      0.116579
      7.99605      2.81941      8.89229         0.085502     -0.090830      0.063846
      5.21407      0.82921      8.67630         0.003587      0.017161      0.149147
     11.97077     14.95192     14.69828         0.001375      0.002982     -0.001173
      8.61882      4.19958     17.37892        -0.003611      0.001866     -0.000873
      5.71006      1.68718     16.08925        -0.000684      0.000880      0.002727
      7.38348      8.82752     11.89413         0.238060      0.099747     -0.173386
      9.57419      7.95042     10.90633         0.120332     -0.106352     -0.117498
      9.32939     14.37220     10.45190         0.054927      0.000415      0.127836
      5.71709     11.87720      7.91250        -0.105264     -0.017505      0.039744
      7.29827      7.58330      9.92689        -0.163948     -0.089909     -0.011152
      9.49268     10.58787      9.10862        -0.110345      0.038695     -0.004300
      3.26254      8.84269      9.46105        -0.024737     -0.203972     -0.122124
     13.88920     12.64839      9.47364        -0.128960     -0.097439      0.164980
     10.98006     15.61013     11.93160         0.311438      0.329204      0.162462
      2.85456      5.84672     16.43718        -0.001805      0.007730      0.003294
      1.72884     12.03650     17.36535        -0.000422     -0.000500     -0.001281
      5.59218      7.04165     18.35921         0.002806      0.004657     -0.002001
      5.75073     14.76135     18.00174         0.001198     -0.001407     -0.004090
     13.95703      9.86233     19.08886         0.006975     -0.004582     -0.002134
     13.21517      9.55095     20.76064        -0.000268     -0.000108      0.003401
     12.60119      6.95579     20.71410         0.000825     -0.005225     -0.011270
     13.94745      6.09577     19.68384         0.009794     -0.003328     -0.004918
      8.63740     11.74900     11.80180        -0.242138      0.115578     -0.217771
      8.11940      9.13372     11.30145        -0.099383      0.600207      0.027867
     20.15033     10.28390     18.74125         0.004025     -0.003398      0.012359
      8.16606     17.35214     14.25636        -0.002870      0.000997     -0.004196
      0.78327     16.89898     14.20884        -0.005998      0.003893     -0.003789
     14.89791      1.42920     13.15609         2.316469     -0.960725     -0.077893
      1.60710      0.94711     10.62191        -0.309479      0.492984      0.118773
     10.57955      2.34783     11.30707         0.046342      0.074176     -0.128153
     18.86679      3.87161     12.98914         0.539326     -0.041409     -0.205082
     22.78198      3.28703     16.10333         0.005590      0.005615      0.004327
[...]
      5.71814      6.71222     11.31648         0.022915     -0.117698     -0.124485
     15.41693      5.98005     12.10687        -0.159868     -0.449906     -0.813343
     10.76380      5.77123     14.22253         0.010840     -0.000358     -0.001762
      7.89661     10.69049     10.72869        -0.111805     -0.062929     -0.049393
     18.80209      8.63396     15.58676        -0.000372     -0.001234     -0.002886
      1.62029     16.28844     12.91761        -0.316686      6.431579     -0.552699
      4.96103      2.61769     10.04353        -0.069649     -0.046478      0.045613
      1.83153      8.95162     13.29887         0.011002     -0.134939     -0.330253
     13.05344     15.44546     12.76235       -22.318478    -15.872185      4.715948
     16.81434     10.59611     16.38809         0.000486      0.000161     -0.004073
      6.71066      3.80730     12.34244        -0.217813      0.005307     -0.778409
      2.06227     11.33370     15.25795        -0.002640     -0.002773     -0.002872
      8.27532      0.34196     15.53038         0.001108      0.003015     -0.004085
     11.37535      8.73431     15.35712        -0.003932      0.002915     -0.000428
     11.52759      8.96761     18.70209         0.004368      0.003334      0.009017
    total drift:                                0.399318      0.481167      0.187123

  FREE ENERGIE OF THE ION-ELECTRON SYSTEM (eV)
  free  energy   TOTEN  =     -1859.95965230 eV

  energy  without entropy=    -1859.95965230  energy(sigma->0) =    -1859.95965230

 NEB: the previous image is higher in energy: F
 NEB: the next image is higher in energy    : F
 NEB: image is at an extrema
 NEB: diff energy (min, max):     0.200869    0.574144

 NEB: Tangent
     -0.01232      0.24622     -0.03411
     -0.02951     -0.33897      0.09757
      0.00402     -0.00260      0.00138
      0.00000      0.00000      0.00000
      0.00000      0.00000      0.00000
      0.00000      0.00000      0.00000
      0.00000      0.00000      0.00000
      0.00000      0.00000      0.00000
      0.00000      0.00000      0.00000
      0.00009      0.00001     -0.00083
      0.00000      0.00000      0.00000
      0.00077      0.00054     -0.00038
      0.08297      0.11233     -0.05539
     -0.00039     -0.00018      0.00040
     -0.00042     -0.00026      0.00072
      0.00000      0.00000      0.00000
      0.00000      0.00000      0.00000
      0.00391      0.00546      0.00372
      0.00000      0.00000      0.00000
      0.00000      0.00000      0.00000
      0.00000      0.00000      0.00000
      0.00000      0.00000      0.00000
      0.00000      0.00000      0.00000
     -0.00031      0.00233     -0.00202
      0.00000      0.00000      0.00000
      0.00000      0.00000      0.00000
      0.00000      0.00000      0.00000
      0.00000      0.00000      0.00000
      0.00000      0.00000      0.00000
      0.00000      0.00000      0.00000
      0.00037     -0.00268      0.00017
     -0.02097     -0.01184     -0.01344
     -0.00060     -0.00008      0.00040
      0.00000      0.00000      0.00000
      0.00000      0.00000      0.00000
      0.00000      0.00000      0.00000
      0.00000      0.00000      0.00000
      0.00000      0.00000      0.00000
      0.00000      0.00000      0.00000
      0.00000      0.00000      0.00000
      0.00000      0.00000      0.00000
      0.00000      0.00000      0.00000
     -0.00163      0.00278     -0.00030
      0.00270      0.00093      0.00158
     -0.00484      0.00629      0.00101
      0.00183     -0.00007      0.00139
     -0.01523      0.26552     -0.02089
      0.04445      0.10540     -0.01780
      0.01168     -0.15580      0.08930
     -0.28319     -0.63755      0.13297
      0.00000      0.00000      0.00000
      0.00000      0.00000      0.00000
     -0.00095      0.00205     -0.00115
     -0.00078      0.00202     -0.00152
     -0.00031     -0.00083      0.00064
      0.00000      0.00000      0.00000
      0.00000      0.00000      0.00000
      0.00000      0.00000      0.00000
      0.00000      0.00000      0.00000
     -0.00028      0.00143     -0.00369
[...]
      0.00000      0.00000      0.00000
      0.00000      0.00000      0.00000
      0.00327      0.00481     -0.00111
      0.00000      0.00000      0.00000
     -0.00210      0.00216     -0.00083
      0.00000      0.00000      0.00000
      0.00000      0.00000      0.00000
      0.00000      0.00000      0.00000
      0.00000      0.00000      0.00000
     -0.00329      0.00137      0.00040
      0.00000      0.00000      0.00000
     -0.00074      0.00103      0.00127
     -0.00099      0.00192     -0.00162
      0.00568      0.00220      0.01137
      0.05500      0.07671      0.01078

 NEB: forces: par spring, perp REAL, dneb     0.538838    0.106303    0.000000
 NEB: distance to prev, next image, angle between     1.139902    1.032135  124.894868
 NEB: projections on to tangent (spring, REAL)    -0.538838    0.003040

 stress matrix after NEB project (eV)
    -32.53618      0.11878      0.36718
      0.11878    -33.29303     -0.04419
      0.36718     -0.04419    -25.00660
  FORCES: max atom, RMS     0.037831    0.006460
  FORCE total and by dimension    0.106346    0.028594
  Stress total and by dimension   52.845635   33.293031
 OPT: skip step - force has converged

 reached required accuracy - stopping structural energy minimisation