 vasp.5.4.4.18Apr17-6-g9f103f2a35 (build May 20 2022 18:47:50) complex
 executed on             LinuxPGI date 2022.08.31  14:30:02

 INCAR:
 POTCAR:    PAW_PBE C 08Apr2002
 POTCAR:    PAW_PBE H 15Jun2001
 POTCAR:    PAW_PBE O 08Apr2002
 POTCAR:    PAW_PBE Si 05Jan2001
 POTCAR:    PAW_PBE W 08Apr2002

 POTCAR:    PAW_PBE C 08Apr2002
   VRHFIN =C: s2p2

   TITEL  = PAW_PBE C 08Apr2002
   POMASS =   12.011; ZVAL   =    4.000    mass and valenz
   ENMAX  =  400.000; ENMIN  =  300.000 eV

 POTCAR:    PAW_PBE H 15Jun2001
   VRHFIN =H: ultrasoft test

   TITEL  = PAW_PBE H 15Jun2001
   POMASS =    1.000; ZVAL   =    1.000    mass and valenz
   ENMAX  =  250.000; ENMIN  =  200.000 eV

 POTCAR:    PAW_PBE O 08Apr2002
   VRHFIN =O: s2p4

[...]

 POTCAR:    PAW_PBE Si 05Jan2001
   VRHFIN =Si: s2p2

   TITEL  = PAW_PBE Si 05Jan2001
   POMASS =   28.085; ZVAL   =    4.000    mass and valenz
   ENMAX  =  245.345; ENMIN  =  184.009 eV

 POTCAR:    PAW_PBE W 08Apr2002
   VRHFIN =W : 6s5d

   TITEL  = PAW_PBE W 08Apr2002
   POMASS =  183.850; ZVAL   =    6.000    mass and valenz
   ENMAX  =  223.057; ENMIN  =  167.293 eV

 Optimization of the real space projectors (new method)

 maximal supplied QI-value         = 25.13
 optimisation between [QCUT,QGAM] = [ 11.31, 22.87] = [ 35.82,146.48] Ry
 Optimized for a Real-space Cutoff    1.00 Angstroem

   l    n(q)    QCUT    max X(q) W(low)/X(q) W(high)/X(q)  e(spline)
   0      7    11.310   115.676    0.43E-03    0.13E-02    0.19E-06
   0      7    11.310    87.132    0.43E-03    0.13E-02    0.18E-06
   1      6    11.310     4.429    0.42E-03    0.74E-03    0.11E-06
   1      6    11.310     2.733    0.34E-03    0.55E-03    0.92E-07
 Optimization of the real space projectors (new method)

[...]

   l    n(q)    QCUT    max X(q) W(low)/X(q) W(high)/X(q)  e(spline)
   0      8    11.310   159.560    0.27E-03    0.30E-03    0.39E-07
   0      8    11.310   115.863    0.27E-03    0.30E-03    0.38E-07
   1      7    11.310    88.339    0.28E-03    0.28E-03    0.77E-07
   1      7    11.310    48.592    0.27E-03    0.27E-03    0.74E-07
 Optimization of the real space projectors (new method)

 maximal supplied QI-value         = 13.61
 optimisation between [QCUT,QGAM] = [ 11.43, 22.86] = [ 36.58,146.31] Ry
 Optimized for a Real-space Cutoff    1.56 Angstroem

   l    n(q)    QCUT    max X(q) W(low)/X(q) W(high)/X(q)  e(spline)
   2     10    11.429   130.855    0.22E-03    0.64E-03    0.11E-05
   2     10    11.429   114.007    0.22E-03    0.64E-03    0.11E-05
   0     11    11.429    84.709    0.39E-04    0.67E-04    0.23E-06
   0     11    11.429    49.163    0.35E-04    0.62E-04    0.21E-06
   1     10    11.429    15.765    0.84E-04    0.15E-03    0.24E-06
   1     10    11.429    10.638    0.58E-04    0.12E-03    0.19E-06

  PAW_PBE C 08Apr2002                   :
  PAW_PBE H 15Jun2001                   :
  PAW_PBE O 08Apr2002                   :
  PAW_PBE Si 05Jan2001                  :
  PAW_PBE W 08Apr2002                   :

 POSCAR:  C  H  O Si  W
  positions in direct lattice
  velocities in cartesian coordinates
 exchange correlation table for  LEXCH =        9
   RHO(1)=    0.500       N(1)  =     2000
   RHO(2)=  100.500       N(2)  =     4000

 ion  position               nearest neighbor table
   1  0.568  0.549  0.770-  48 1.10  47 1.10  50 1.10   2 1.52
   2  0.535  0.481  0.753-  49 1.10 204 1.42   1 1.52 271 2.09
   3  0.761  0.104  0.651- 125 0.97
   4  0.926  0.279  0.356-  73 0.98
   5  0.793  0.207  0.373- 108 0.97
   6  0.975  0.944  0.325- 117 0.97
   7  0.626  0.963  0.375- 119 0.98
   8  0.821  0.995  0.369- 137 0.97
   9  0.750  0.141  0.458- 175 0.98
  10  0.915  0.249  0.509- 180 0.97
  11  0.583  0.304  0.306- 185 0.97
  12  0.891  0.335  0.617-  91 0.98
  13  0.590  0.359  0.616- 136 0.97
  14  0.593  0.869  0.578- 178 0.99
  15  0.034  0.338  0.652- 184 0.97
  16  0.935  0.420  0.454- 173 0.98
  17  0.746  0.530  0.422-  87 1.00
  18  0.796  0.381  0.634- 165 0.97
  19  0.591  0.569  0.378-  99 0.99
  20  0.718  0.646  0.383- 122 0.99
  21  0.841  0.542  0.420- 128 0.98
  22  0.005  0.604  0.358- 133 0.97
  23  0.828  0.712  0.468- 174 0.99
  24  0.878  0.599  0.721-  53 0.97
  25  0.520  0.986  0.422- 135 0.99
  26  0.223  0.980  0.393- 176 1.00
  27  0.216  0.238  0.319- 191 0.99
  28  0.158  0.330  0.279- 182 0.97
  29  0.342  0.156  0.331- 183 0.98
  30  0.223  0.046  0.323- 190 0.97
  31  0.511  0.825  0.546- 193 0.97
  32  0.382  0.243  0.648-  78 0.97
  33  0.244  0.093  0.598- 129 0.98
  34  0.315  0.487  0.442-  52 0.99
  35  0.409  0.439  0.406- 141 0.98
  36  0.398  0.793  0.389- 179 0.97
  37  0.244  0.655  0.294- 187 0.97
  38  0.312  0.418  0.369- 188 0.98
  39  0.405  0.584  0.339- 189 0.97
  40  0.139  0.488  0.352- 181 0.98
  41  0.593  0.698  0.352-  82 0.97
  42  0.469  0.861  0.444- 192 0.99
  43  0.122  0.323  0.612- 101 0.97
  44  0.071  0.666  0.645- 132 0.97
  45  0.244  0.384  0.682- 177 0.97
  46  0.244  0.815  0.669- 186 0.97
  47  0.582  0.583  0.738-   1 1.10
  48  0.541  0.583  0.794-   1 1.10
  49  0.520  0.445  0.783-   2 1.10
  50  0.606  0.532  0.791-   1 1.10
  51  0.369  0.648  0.439- 225 1.66 260 1.68
  52  0.347  0.504  0.420-  34 0.99 260 1.67
  53  0.861  0.566  0.697-  24 0.97 231 1.64
  54  0.349  0.957  0.531- 236 1.68 269 1.69
  55  0.033  0.932  0.529- 251 1.63 262 1.65
  56  0.636  0.079  0.489- 229 1.60 218 1.65
  57  0.069  0.052  0.395- 217 1.64 209 1.65
  58  0.452  0.130  0.421- 234 1.65 215 1.65
  59  0.806  0.214  0.483- 233 1.67 230 1.69
  60  0.973  0.182  0.599- 211 1.63 241 1.65
[...]
 213  0.214  0.476  0.510- 172 1.61 171 1.63 131 1.66 168 1.66 224 3.10 257 3.14
 214  0.915  0.756  0.496-  96 1.65 174 1.65  80 1.65  85 1.66 227 2.99 235 3.03
 215  0.521  0.110  0.426- 107 1.64  58 1.65 135 1.66 115 1.67 246 3.08 229 3.12
 216  0.419  0.168  0.589-  78 1.64 195 1.65  95 1.68 155 1.69 269 3.14 256 3.14
 217  0.083  0.139  0.407-  57 1.64 138 1.65  83 1.65 151 1.66 210 3.11 209 3.13 263 3.14
 218  0.702  0.045  0.487-  90 1.64 159 1.65  56 1.65 175 1.66 229 3.09 219 3.10 253 3.15
 219  0.665  0.898  0.437-  89 1.53 159 1.66 119 1.66 150 1.67 265 2.83 252 3.06 218 3.10
 220  0.650  0.504  0.430-  99 1.65 157 1.65  87 1.67  93 1.68 228 3.06
 221  0.198  0.912  0.464- 130 1.50 176 1.64 153 1.66 109 1.67 239 3.01 236 3.06 262 3.07
 222  0.214  0.366  0.604-  77 1.63 172 1.64 101 1.64 177 1.65
 223  0.673  0.813  0.595- 178 1.62 110 1.64  92 1.68 200 1.71 250 2.90
 224  0.217  0.641  0.538- 163 1.63 170 1.63 196 1.65 131 1.65 239 3.09 213 3.10 268 3.12
 225  0.369  0.735  0.459-  67 1.65  51 1.66  98 1.67 179 1.68
 226  0.797  0.888  0.596- 134 1.66  92 1.66 103 1.67 199 1.68 235 2.86 227 3.00 253 3.15
 227  0.880  0.912  0.512-  66 1.60  85 1.62 103 1.65 111 1.65 214 2.99 226 3.00 251 3.05 242 3.13

 228  0.576  0.574  0.511-  93 1.58  94 1.62 160 1.63 127 1.65 238 3.00 220 3.06 270 3.13
 229  0.590  0.115  0.525-  56 1.60 115 1.61 152 1.62 142 1.65 256 2.85 218 3.09 240 3.12 215 3.12

[...]

 267  0.287  0.210  0.459- 167 1.63 116 1.63  61 1.66 146 1.67 245 3.03 263 3.12
 268  0.088  0.626  0.568- 156 1.63 132 1.63 102 1.64 163 1.65 264 3.10 224 3.12 244 3.15
 269  0.354  0.017  0.579- 155 1.63  63 1.66 202 1.69  54 1.69 236 2.38 255 2.75 216 3.14
 270  0.487  0.479  0.570- 127 1.63  71 1.66 121 1.67  79 1.68 247 3.00 228 3.13 271 3.20
 271  0.485  0.483  0.689- 205 1.72 118 1.93 204 1.96  71 1.97   2 2.09 247 3.13 270 3.20

  LATTYP: Found a simple orthorhombic cell.
 ALAT       =    18.1212369514
 B/A-ratio  =     1.2919258579
 C/A-ratio  =     1.4835282260

  Lattice vectors:

 A1 = (   0.0000000000, -18.1212369514,   0.0000000000)
 A2 = ( -23.4112945954,   0.0000000000,   0.0000000000)
 A3 = (   0.0000000000,   0.0000000000, -26.8833665073)

Analysis of symmetry for initial positions (statically):
 Subroutine PRICEL returns:
 Original cell was already a primitive cell.

 Routine SETGRP: Setting up the symmetry group for a
 simple orthorhombic supercell.

 Subroutine GETGRP returns: Found  1 space group operations
 (whereof  1 operations were pure point group operations)
 out of a pool of  8 trial point group operations.

The static configuration has the point symmetry C_1 .

Analysis of symmetry for dynamics (positions and initial velocities):
 Subroutine PRICEL returns:
 Original cell was already a primitive cell.

[...]

The dynamic configuration has the point symmetry C_1 .

Analysis of constrained symmetry for selective dynamics:
 Subroutine PRICEL returns:
 Original cell was already a primitive cell.

 Routine SETGRP: Setting up the symmetry group for a
 simple orthorhombic supercell.

 Subroutine GETGRP returns: Found  1 space group operations
 (whereof  1 operations were pure point group operations)
 out of a pool of  8 trial point group operations.

The constrained configuration has the point symmetry C_1 .

 Subroutine INISYM returns: Found  1 space group operations
 (whereof  1 operations are pure point group operations),
 and found     1 'primitive' translations

 KPOINTS: KPOINTS created by Atomic Simulation Env

Automatic generation of k-mesh.
Space group operators:
 irot       det(A)        alpha          n_x          n_y          n_z        tau_x        tau_y        tau_z
    1     1.000000     0.000000     1.000000     0.000000     0.000000     0.000000     0.000000     0.000000

 Subroutine IBZKPT returns following result:

 Found      5 irreducible k-points:

 Following reciprocal coordinates:
            Coordinates               Weight
  0.000000  0.000000  0.000000      1.000000
  0.333333  0.000000  0.000000      2.000000
  0.000000  0.333333  0.000000      2.000000
  0.333333  0.333333  0.000000      2.000000
 -0.333333  0.333333  0.000000      2.000000

 Following cartesian coordinates:
            Coordinates               Weight
  0.000000  0.000000  0.000000      1.000000
  0.014238  0.000000  0.000000      2.000000
  0.000000  0.018395  0.000000      2.000000
  0.014238  0.018395  0.000000      2.000000
 -0.014238  0.018395  0.000000      2.000000

 SYSTEM =  unknown system
 POSCAR =   C  H  O Si  W

 Startparameter for this run:
   NWRITE =      2    write-flag & timer
   PREC   = normal    normal or accurate (medium, high low for compatibility)
   ISTART =      0    job   : 0-new  1-cont  2-samecut
   ICHARG =      2    charge: 1-file 2-atom 10-const
   ISPIN  =      1    spin polarized calculation?
   LNONCOLLINEAR =      F non collinear calculations
   LSORBIT =      F    spin-orbit coupling
   INIWAV =      1    electr: 0-lowe 1-rand  2-diag
   LASPH  =      T    aspherical Exc in radial PAW
   METAGGA=      F    non-selfconsistent MetaGGA calc.

 Electronic Relaxation 1
   ENCUT  =  500.0 eV  36.75 Ry    6.06 a.u.  42.68 33.04 49.01*2*pi/ulx,y,z
   ENINI  =  500.0     initial cutoff
   ENAUG  =  644.9 eV  augmentation charge cutoff
   NELM   =     60;   NELMIN=  2; NELMDL= -5     # of ELM steps
   EDIFF  = 0.1E-03   stopping-criterion for ELM
   LREAL  =      T    real-space projection
   NLSPLINE    = F    spline interpolate recip. space projectors
   LCOMPAT=      F    compatible to vasp.4.4
[...]
    electron-ion (+dipol)            ewald-force                    non-local-force                 convergence-correction
   -.691E+02 -.803E+02 -.587E+03   0.697E+02 0.808E+02 0.587E+03   -.699E+00 -.559E+00 -.556E-01   0.435E-02 0.499E-02 -.190E-02
   0.361E+02 0.314E+02 -.664E+03   -.389E+02 -.280E+02 0.670E+03   0.285E+01 -.330E+01 -.594E+01   -.518E-02 0.392E-02 -.117E-02
   0.394E+02 0.501E+01 -.216E+03   -.430E+02 -.744E+01 0.223E+03   0.363E+01 0.247E+01 -.715E+01   -.103E-02 -.905E-03 0.107E-03
   0.965E+02 0.274E+02 0.131E+03   -.104E+03 -.309E+02 -.130E+03   0.737E+01 0.362E+01 -.921E+00   0.549E-04 -.565E-05 0.801E-04
   0.276E+02 0.736E+02 0.168E+03   -.300E+02 -.810E+02 -.170E+03   0.240E+01 0.751E+01 0.249E+01   0.720E-04 0.198E-04 0.996E-05
   0.834E+02 0.519E+02 0.179E+03   -.906E+02 -.548E+02 -.181E+03   0.733E+01 0.292E+01 0.253E+01   -.147E-04 0.323E-04 -.154E-04
   0.482E+02 -.600E+02 0.163E+03   -.538E+02 0.658E+02 -.164E+03   0.572E+01 -.579E+01 0.116E+01   0.449E-04 -.435E-04 -.123E-03
   0.931E+02 0.257E+02 0.148E+03   -.101E+03 -.271E+02 -.149E+03   0.814E+01 0.144E+01 0.300E+00   0.982E-04 -.168E-04 0.384E-04
   -.652E+01 -.674E+02 0.385E+02   0.881E+01 0.743E+02 -.360E+02   -.236E+01 -.718E+01 -.261E+01   0.211E-03 -.147E-03 0.222E-03
   0.247E+02 -.875E+02 -.133E+02   -.249E+02 0.959E+02 0.137E+02   0.193E+00 -.839E+01 -.316E+00   0.268E-03 0.202E-03 0.199E-03
   -.373E+02 -.789E+02 0.194E+03   0.394E+02 0.859E+02 -.198E+03   -.220E+01 -.716E+01 0.348E+01   0.194E-05 0.184E-04 -.117E-04
   0.542E+02 -.448E+02 -.865E+02   -.598E+02 0.499E+02 0.832E+02   0.561E+01 -.507E+01 0.333E+01   0.665E-03 -.603E-03 -.199E-03
   0.505E+01 -.481E+02 -.140E+03   -.830E+01 0.552E+02 0.143E+03   0.330E+01 -.712E+01 -.286E+01   -.174E-03 0.317E-03 0.988E-03
   0.604E+02 -.118E+02 -.723E+02   -.673E+02 0.102E+02 0.690E+02   0.690E+01 0.156E+01 0.330E+01   0.152E-03 -.611E-03 0.637E-04
   -.237E+01 -.840E+02 -.191E+03   0.247E+01 0.912E+02 0.195E+03   -.112E+00 -.713E+01 -.441E+01   -.175E-02 -.277E-03 -.190E-03
   -.343E+02 0.208E+02 0.983E+02   0.391E+02 -.256E+02 -.103E+03   -.492E+01 0.497E+01 0.435E+01   -.179E-03 -.507E-04 0.385E-03
   -.751E+02 0.279E+02 0.963E+02   0.816E+02 -.310E+02 -.959E+02   -.678E+01 0.325E+01 -.455E+00   -.288E-04 0.850E-05 0.117E-04
   0.450E+02 0.553E+02 -.187E+03   -.497E+02 -.579E+02 0.194E+03   0.465E+01 0.264E+01 -.648E+01   0.257E-03 0.254E-03 -.291E-03
   0.282E+02 -.478E+02 0.164E+03   -.304E+02 0.549E+02 -.166E+03   0.234E+01 -.731E+01 0.185E+01   0.238E-04 -.427E-04 0.215E-03
   -.290E+02 0.711E+02 0.148E+03   0.289E+02 -.786E+02 -.148E+03   0.912E-01 0.772E+01 -.584E+00   -.282E-04 -.115E-03 -.531E-04
   -.616E+02 -.776E+02 0.116E+03   0.662E+02 0.842E+02 -.117E+03   -.469E+01 -.668E+01 0.105E+01   0.110E-04 -.816E-04 0.191E-03
   0.120E+03 -.102E+02 0.128E+03   -.129E+03 0.104E+02 -.127E+03   0.828E+01 -.202E+00 -.537E+00   -.536E-04 0.110E-04 -.179E-04
   0.370E+02 0.473E+01 0.711E+02   -.445E+02 -.385E+01 -.705E+02   0.779E+01 -.934E+00 -.610E+00   0.183E-03 -.805E-04 0.256E-03
   -.608E+02 -.437E+02 -.208E+03   0.643E+02 0.486E+02 0.213E+03   -.354E+01 -.496E+01 -.581E+01   0.355E-03 0.680E-03 0.495E-04
   0.452E+02 0.594E+02 0.771E+02   -.485E+02 -.656E+02 -.736E+02   0.328E+01 0.627E+01 -.354E+01   -.827E-04 0.819E-04 -.778E-04
   -.157E+02 -.347E+02 0.129E+03   0.159E+02 0.411E+02 -.132E+03   -.263E+00 -.677E+01 0.317E+01   -.558E-05 0.770E-04 -.684E-04
   0.191E+02 -.452E+02 0.180E+03   -.234E+02 0.510E+02 -.182E+03   0.441E+01 -.594E+01 0.228E+01   -.359E-04 -.656E-04 -.322E-04
   -.189E+01 -.366E+02 0.238E+03   0.242E+01 0.403E+02 -.245E+03   -.514E+00 -.386E+01 0.729E+01   -.142E-04 -.389E-04 -.277E-04
   0.442E+02 -.135E+02 0.191E+03   -.502E+02 0.169E+02 -.195E+03   0.618E+01 -.354E+01 0.405E+01   -.123E-05 -.372E-04 -.706E-04
   -.159E+01 0.498E+02 0.228E+03   0.953E+00 -.517E+02 -.236E+03   0.646E+00 0.182E+01 0.809E+01   -.220E-04 0.968E-05 0.550E-06
   0.671E+02 0.825E+01 -.669E+02   -.749E+02 -.860E+01 0.699E+02   0.770E+01 0.365E+00 -.299E+01   0.344E-03 -.101E-02 -.138E-03
   0.433E+02 -.811E+02 -.152E+03   -.466E+02 0.888E+02 0.153E+03   0.322E+01 -.773E+01 -.104E+01   -.491E-03 0.819E-03 0.102E-02
   0.140E+02 0.772E+02 -.105E+03   -.123E+02 -.851E+02 0.104E+03   -.163E+01 0.794E+01 0.125E+01   -.693E-03 0.112E-02 0.772E-03
   0.176E+02 0.170E+02 -.511E+01   -.230E+02 -.194E+02 0.956E+01   0.560E+01 0.252E+01 -.459E+01   0.170E-04 0.151E-03 -.443E-04
   0.286E+02 -.518E+02 0.534E+02   -.337E+02 0.562E+02 -.495E+02   0.525E+01 -.445E+01 -.402E+01   0.247E-04 0.878E-04 -.104E-03
   0.147E+02 -.265E+02 0.208E+03   -.168E+02 0.273E+02 -.216E+03   0.214E+01 -.795E+00 0.797E+01   -.111E-04 0.315E-04 -.211E-03
   -.765E+02 -.273E+02 0.198E+03   0.836E+02 0.284E+02 -.202E+03   -.723E+01 -.106E+01 0.394E+01   0.382E-05 0.175E-04 -.250E-04
   -.829E+02 -.367E+02 0.134E+03   0.899E+02 0.406E+02 -.134E+03   -.716E+01 -.403E+01 -.162E+00   0.570E-04 0.237E-04 -.110E-03
   -.102E+03 0.109E+02 0.154E+03   0.110E+03 -.129E+02 -.155E+03   -.796E+01 0.202E+01 0.105E+01   0.505E-04 0.276E-05 -.203E-04
   0.515E+00 -.695E+02 0.100E+03   0.782E+00 0.762E+02 -.960E+02   -.133E+01 -.693E+01 -.420E+01   -.291E-04 0.920E-05 -.745E-04
   -.325E+02 -.496E+02 0.218E+03   0.364E+02 0.540E+02 -.224E+03   -.406E+01 -.454E+01 0.559E+01   -.251E-04 -.108E-03 0.100E-03
   0.760E+02 0.226E+02 0.109E+03   -.819E+02 -.266E+02 -.111E+03   0.621E+01 0.436E+01 0.246E+01   -.763E-04 -.487E-04 -.848E-04
   0.497E+02 0.520E+02 -.109E+03   -.549E+02 -.582E+02 0.108E+03   0.522E+01 0.627E+01 0.175E+01   -.321E-03 -.216E-02 -.127E-02
   -.135E+02 -.717E+02 -.194E+03   0.154E+02 0.780E+02 0.199E+03   -.194E+01 -.629E+01 -.524E+01   0.872E-04 0.572E-03 -.738E-04
   0.146E+02 0.211E+02 -.226E+03   -.160E+02 -.239E+02 0.234E+03   0.143E+01 0.273E+01 -.782E+01   0.445E-05 0.335E-03 -.765E-03
   0.276E+02 -.759E+02 -.197E+03   -.278E+02 0.829E+02 0.201E+03   0.199E+00 -.699E+01 -.465E+01   0.250E-03 -.596E-05 0.308E-03
   -.312E+02 -.447E+02 -.114E+03   0.329E+02 0.478E+02 0.109E+03   -.170E+01 -.311E+01 0.427E+01   0.422E-03 0.363E-03 0.648E-03
   0.268E+02 -.451E+02 -.163E+03   -.298E+02 0.482E+02 0.166E+03   0.311E+01 -.312E+01 -.330E+01   0.642E-03 0.110E-02 0.127E-03
   0.215E+02 0.476E+02 -.180E+03   -.234E+02 -.509E+02 0.185E+03   0.185E+01 0.335E+01 -.413E+01   -.142E-02 0.823E-03 0.699E-03
   -.597E+02 0.930E+01 -.157E+03   0.642E+02 -.108E+02 0.160E+03   -.445E+01 0.149E+01 -.278E+01   0.830E-03 0.914E-03 -.455E-03
   -.156E+03 0.465E+02 0.333E+03   0.170E+03 -.579E+02 -.324E+03   -.141E+02 0.115E+02 -.950E+01   -.189E-03 -.966E-03 -.803E-03
   -.176E+03 0.407E+02 0.382E+03   0.204E+03 -.564E+02 -.392E+03   -.279E+02 0.163E+02 0.958E+01   0.174E-03 0.437E-03 -.337E-03
   -.178E+03 0.144E+03 -.951E+03   0.175E+03 -.183E+03 0.952E+03   0.381E+01 0.391E+02 -.135E+01   -.344E-02 -.450E-02 -.147E-01
   -.325E+02 0.247E+02 0.794E+02   0.554E+02 -.343E+02 -.109E+03   -.229E+02 0.963E+01 0.296E+02   -.900E-02 -.104E-01 -.138E-01
   -.105E+03 0.100E+03 -.390E+03   0.111E+03 -.110E+03 0.403E+03   -.674E+01 0.974E+01 -.125E+02   -.902E-02 0.112E-01 0.114E-01
   -.640E+02 -.238E+02 0.159E+03   0.571E+02 0.217E+02 -.180E+03   0.921E+01 0.119E+01 0.211E+02   -.180E-02 0.208E-02 0.229E-02
   -.535E+02 0.115E+03 0.658E+03   0.711E+02 -.124E+03 -.664E+03   -.179E+02 0.103E+02 0.587E+01   0.380E-03 0.198E-02 0.105E-02
   0.614E+02 0.185E+03 0.464E+03   -.689E+02 -.196E+03 -.453E+03   0.746E+01 0.109E+02 -.108E+02   0.161E-03 -.446E-03 -.388E-03
   0.740E+02 -.825E+02 0.558E+01   -.890E+02 0.817E+02 0.100E+02   0.155E+02 0.743E+00 -.158E+02   0.107E-02 -.110E-02 0.160E-02
   0.105E+03 0.695E+02 -.776E+03   -.124E+03 -.770E+02 0.789E+03   0.190E+02 0.754E+01 -.127E+02   0.916E-03 0.160E-01 -.119E-02
[...]
   -.516E+02 -.124E+02 0.212E+03   0.510E+02 0.112E+02 -.213E+03   0.461E+00 0.752E+00 0.878E+00   0.182E-03 0.257E-03 -.507E-03
   0.705E+02 -.306E+02 -.152E+03   -.649E+02 0.291E+02 0.148E+03   -.559E+01 0.146E+01 0.340E+01   -.125E-02 -.153E-02 -.148E-02
   -.875E+02 -.235E+02 0.376E+03   0.875E+02 0.215E+02 -.378E+03   -.171E+00 0.201E+01 0.173E+01   -.939E-04 0.321E-04 -.985E-04
   -.586E+02 0.963E+02 -.271E+03   0.581E+02 -.965E+02 0.273E+03   0.468E+00 0.194E+00 -.163E+01   0.292E-02 0.153E-02 0.340E-03
   -.104E+02 0.111E+01 0.277E+02   0.111E+02 -.430E+01 -.300E+02   -.979E+00 0.963E+01 0.181E+01   0.245E-03 0.351E-03 -.214E-03
   -.285E+02 0.855E+02 0.454E+03   0.285E+02 -.839E+02 -.456E+03   -.393E-01 -.174E+01 0.155E+01   -.840E-03 -.223E-03 -.258E-03
   0.941E+02 -.509E+01 -.293E+02   -.927E+02 0.731E+01 0.297E+02   -.134E+01 -.237E+01 -.632E+00   -.679E-03 0.150E-03 -.309E-03
   0.114E+03 0.178E+02 0.144E+03   -.108E+03 -.106E+02 -.148E+03   -.282E+02 -.230E+02 0.862E+01   -.274E-03 -.145E-02 -.464E-03
   -.158E+02 0.973E+02 -.412E+03   0.176E+02 -.958E+02 0.412E+03   -.176E+01 -.151E+01 0.338E+00   0.269E-02 0.174E-02 -.145E-03
   -.302E+02 0.319E+02 0.124E+03   0.302E+02 -.327E+02 -.124E+03   -.225E+00 0.851E+00 -.103E+01   -.329E-03 0.796E-04 -.182E-02
   0.565E+02 -.177E+02 -.368E+03   -.572E+02 0.184E+02 0.369E+03   0.628E+00 -.780E+00 -.883E+00   -.223E-03 0.152E-02 0.939E-03
   0.547E+02 -.577E+02 -.320E+03   -.559E+02 0.532E+02 0.319E+03   0.122E+01 0.444E+01 0.181E+00   -.168E-02 0.589E-03 0.877E-03
   0.994E+02 0.551E+02 -.186E+03   -.951E+02 -.530E+02 0.188E+03   -.434E+01 -.203E+01 -.230E+01   -.165E-02 0.930E-04 -.109E-03
   0.127E+03 0.383E+02 -.800E+03   -.126E+03 -.405E+02 0.801E+03   -.147E+01 0.218E+01 -.461E+00   -.109E-02 -.498E-02 0.567E-02
   0.343E+03 -.241E+03 -.144E+03   -.227E-12 0.931E-12 0.318E-11   -.343E+03 0.242E+03 0.144E+03   0.474E-01 0.706E-01 -.171E-02

 POSITION                                       TOTAL-FORCE (eV/Angst)
     13.29840      9.94598     20.69464        -0.012447      0.006102      0.008206
     12.52417      8.71750     20.24167        -0.003180      0.023532      0.022168
     17.80512      1.88002     17.50076         0.005093      0.009307     -0.015867
     21.68887      5.04983      9.57948         0.100552      0.073248     -0.025922
     18.57311      3.75615     10.03977         0.037123      0.114118      0.045451
     22.81522     17.09936      8.74523         0.107851      0.056962      0.028720
     14.64921     17.45932     10.08748         0.054559     -0.003412     -0.059581
     19.20987     18.03075      9.91976         0.119961      0.024816     -0.001109
     17.55831      2.55833     12.31361        -0.110176     -0.219006     -0.131028
     21.42953      4.52024     13.69627         0.000484      0.000132     -0.000270
     13.66032      5.51363      8.22435        -0.100832     -0.128850      0.042154
     20.86797      6.06453     16.57601        -0.000937      0.001379     -0.002204
     13.80263      6.49809     16.56898         0.001704      0.002519     -0.001107
     13.88049     15.75586     15.55075         0.000204     -0.001377     -0.003288
      0.79670      6.12201     17.52749        -0.001026      0.003262      0.002066
     21.89589      7.60212     12.20778        -0.090265      0.135026      0.069098
     17.46807      9.60991     11.35790        -0.317234      0.157791     -0.036482
     18.64664      6.89631     17.03396         0.002217      0.001096     -0.007071
     13.83846     10.30524     10.16285         0.097983     -0.185917      0.059476
     16.81947     11.70510     10.30871        -0.028628      0.240733     -0.019366
     19.69248      9.82944     11.28016        -0.107110     -0.102659      0.013568
      0.11154     10.94157      9.61829         0.109409     -0.008993     -0.030942
     19.39295     12.90878     12.57986         0.231803     -0.037883     -0.052636
     20.54939     10.85148     19.38302        -0.005600     -0.005712     -0.003303
     12.17365     17.85965     11.33680         0.014485      0.134786     -0.101712
      5.22293     17.76162     10.57067        -0.012124     -0.351351      0.117065
      5.06559      4.31016      8.58199         0.177681     -0.199457      0.069661
      3.68730      5.97650      7.50000         0.013272     -0.079367      0.117399
      7.99605      2.81941      8.89229         0.084217     -0.090178      0.064569
      5.21407      0.82921      8.67630         0.002256      0.018445      0.149652
     11.96392     14.94896     14.68985        -0.002914      0.000458      0.001073
      8.94553      4.41107     17.41330         0.000982      0.008643      0.000407
      5.71579      1.68438     16.08955         0.001018     -0.010955     -0.002140
      7.38348      8.82752     11.89413         0.227527      0.093500     -0.170237
      9.57419      7.95042     10.90633         0.119004     -0.109389     -0.119264
      9.32939     14.37220     10.45190         0.047270      0.002354      0.129750
      5.71709     11.87720      7.91250        -0.106299     -0.017107      0.038967
      7.29827      7.58330      9.92689        -0.166805     -0.093094     -0.011947
      9.49268     10.58787      9.10862        -0.111143      0.037301     -0.006316
      3.26254      8.84269      9.46105        -0.026206     -0.206353     -0.122288
     13.88920     12.64839      9.47364        -0.128173     -0.096395      0.164125
     10.98006     15.61013     11.93160         0.316817      0.335563      0.163346
      2.85447      5.84936     16.44320         0.016080      0.023893      0.006082
      1.67297     12.07156     17.34573         0.000922     -0.001635      0.002476
      5.71436      6.96262     18.34158        -0.000681     -0.004716      0.007617
      5.72053     14.77150     17.98115        -0.001364      0.002897      0.000470
     13.62156     10.55637     19.83861         0.001637      0.008021     -0.000724
     12.66783     10.56114     21.35461         0.025062      0.018373      0.000951
     12.16559      8.06397     21.05381        -0.010242      0.026108      0.010830
     14.19506      9.63847     21.25890         0.022721      0.003580     -0.013521
      8.63740     11.74900     11.80180        -0.231740      0.126159     -0.212864
      8.11940      9.13372     11.30145        -0.090313      0.613615      0.029920
     20.15030     10.25715     18.73037         0.004962      0.003478      0.010424
      8.17008     17.33979     14.27141        -0.009228      0.005624      0.003766
      0.78189     16.89806     14.20836         0.007449     -0.007614     -0.003572
     14.89791      1.42920     13.15609         2.332363     -0.960655     -0.133273
      1.60710      0.94711     10.62191        -0.310752      0.484746      0.113786
     10.57955      2.34783     11.30707         0.046712      0.072199     -0.128742
     18.86679      3.87161     12.98914         0.535354     -0.044193     -0.200747
     22.78265      3.28933     16.09727        -0.006072     -0.011696      0.004039
[...]
      5.71814      6.71222     11.31648         0.014368     -0.131098     -0.113734
     15.41693      5.98005     12.10687        -0.163946     -0.481402     -0.789538
     10.77073      5.74159     14.21499        -0.003382     -0.001371      0.001137
      7.89661     10.69049     10.72869        -0.136404     -0.084652     -0.067710
     18.80879      8.62552     15.58751         0.002661      0.003613     -0.006594
      1.62029     16.28844     12.91761        -0.340755      6.439891     -0.549156
      4.96103      2.61769     10.04353        -0.079158     -0.037320      0.059737
      1.83153      8.95162     13.29887         0.026699     -0.153391     -0.322476
     13.05344     15.44546     12.76235       -22.302811    -15.869746      4.698803
     16.81820     10.58365     16.38590         0.008438      0.003962     -0.000015
      6.71066      3.80730     12.34244        -0.232479     -0.005823     -0.733324
      2.06401     11.33521     15.25888         0.003141      0.003971     -0.002912
      8.28755      0.31144     15.56061         0.005815     -0.006237     -0.002937
     11.39855      8.67091     15.32266         0.011152      0.001372     -0.002987
     11.35104      8.75420     18.51633        -0.007015      0.016493      0.011593
    total drift:                                0.521372      0.369634      0.203436

  FREE ENERGIE OF THE ION-ELECTRON SYSTEM (eV)
  free  energy   TOTEN  =     -1861.77184666 eV

  energy  without entropy=    -1861.77184666  energy(sigma->0) =    -1861.77184666

 d Force = 0.1475098E-03[ 0.212E-04, 0.274E-03]  d Energy = 0.1762946E-03-0.288E-04
 d Force =-0.1086154E+01[-0.109E+01,-0.109E+01]  d Ewald  =-0.1086154E+01-0.234E-06

 reached required accuracy - stopping structural energy minimisation
 writing wavefunctions