 vasp.5.4.4.18Apr17-6-g9f103f2a35 (build Oct 20 2021 08:33:53) complex
 executed on             LinuxGNU date 2024.03.20  01:49:30

 INCAR:
 POTCAR:    PAW_PBE C 08Apr2002
 POTCAR:    PAW_PBE H 15Jun2001
 POTCAR:    PAW_PBE O 08Apr2002
 POTCAR:    PAW_PBE Si 05Jan2001
 POTCAR:    PAW_PBE W 08Apr2002
 POTCAR:    PAW_PBE C 08Apr2002
   VRHFIN =C: s2p2

   TITEL  = PAW_PBE C 08Apr2002
   POMASS =   12.011; ZVAL   =    4.000    mass and valenz
   ENMAX  =  400.000; ENMIN  =  300.000 eV

 POTCAR:    PAW_PBE H 15Jun2001
   VRHFIN =H: ultrasoft test

   TITEL  = PAW_PBE H 15Jun2001
   POMASS =    1.000; ZVAL   =    1.000    mass and valenz
   ENMAX  =  250.000; ENMIN  =  200.000 eV

 POTCAR:    PAW_PBE O 08Apr2002
   VRHFIN =O: s2p4

[...]

 POTCAR:    PAW_PBE Si 05Jan2001
   VRHFIN =Si: s2p2

   TITEL  = PAW_PBE Si 05Jan2001
   POMASS =   28.085; ZVAL   =    4.000    mass and valenz
   ENMAX  =  245.345; ENMIN  =  184.009 eV

 POTCAR:    PAW_PBE W 08Apr2002
   VRHFIN =W : 6s5d

   TITEL  = PAW_PBE W 08Apr2002
   POMASS =  183.850; ZVAL   =    6.000    mass and valenz
   ENMAX  =  223.057; ENMIN  =  167.293 eV

 Optimization of the real space projectors (new method)

 maximal supplied QI-value         = 25.13
 optimisation between [QCUT,QGAM] = [ 11.31, 22.87] = [ 35.82,146.48] Ry
 Optimized for a Real-space Cutoff    1.00 Angstroem

   l    n(q)    QCUT    max X(q) W(low)/X(q) W(high)/X(q)  e(spline)
   0      7    11.310   115.676    0.43E-03    0.13E-02    0.19E-06
   0      7    11.310    87.132    0.43E-03    0.13E-02    0.18E-06
   1      6    11.310     4.429    0.42E-03    0.74E-03    0.11E-06
   1      6    11.310     2.733    0.34E-03    0.55E-03    0.92E-07
 Optimization of the real space projectors (new method)

[...]

   l    n(q)    QCUT    max X(q) W(low)/X(q) W(high)/X(q)  e(spline)
   0      8    11.310   159.560    0.27E-03    0.30E-03    0.39E-07
   0      8    11.310   115.863    0.27E-03    0.30E-03    0.38E-07
   1      7    11.310    88.339    0.28E-03    0.28E-03    0.77E-07
   1      7    11.310    48.592    0.27E-03    0.27E-03    0.74E-07
 Optimization of the real space projectors (new method)

 maximal supplied QI-value         = 13.61
 optimisation between [QCUT,QGAM] = [ 11.43, 22.86] = [ 36.58,146.31] Ry
 Optimized for a Real-space Cutoff    1.56 Angstroem

   l    n(q)    QCUT    max X(q) W(low)/X(q) W(high)/X(q)  e(spline)
   2     10    11.429   130.855    0.22E-03    0.64E-03    0.11E-05
   2     10    11.429   114.007    0.22E-03    0.64E-03    0.11E-05
   0     11    11.429    84.709    0.39E-04    0.67E-04    0.23E-06
   0     11    11.429    49.163    0.35E-04    0.62E-04    0.21E-06
   1     10    11.429    15.765    0.84E-04    0.15E-03    0.24E-06
   1     10    11.429    10.638    0.58E-04    0.12E-03    0.19E-06

  PAW_PBE C 08Apr2002                   :
  PAW_PBE H 15Jun2001                   :
  PAW_PBE O 08Apr2002                   :
  PAW_PBE Si 05Jan2001                  :
  PAW_PBE W 08Apr2002                   :

 POSCAR: C  H  O  Si W
  positions in direct lattice
  velocities in cartesian coordinates
 exchange correlation table for  LEXCH =        9
   RHO(1)=    0.500       N(1)  =     2000
   RHO(2)=  100.500       N(2)  =     4000

 VTST: version 3.2, (02/03/18)

 CHAIN: initializing optimizer

 OPT: Using VASP QUASI-newton optimizer
 CHAIN: Read ICHAIN            0

 POSCAR: C  H  O  Si W
  positions in direct lattice
  velocities in cartesian coordinates

 ion  position               nearest neighbor table
   1  0.560  0.438  0.777-  49 1.11  50 1.11   2 1.52   3 1.54
   2  0.543  0.494  0.738-   1 1.52   4 1.53 276 1.92
   3  0.552  0.356  0.762-  52 1.10  51 1.10  53 1.10   1 1.54
   4  0.576  0.567  0.742-  56 1.10  55 1.10  54 1.11   2 1.53
   5  0.761  0.103  0.651- 131 0.97
   6  0.926  0.279  0.356-  79 0.98
   7  0.793  0.207  0.373- 114 0.97
   8  0.975  0.944  0.325- 123 0.97
   9  0.626  0.963  0.375- 125 0.98
  10  0.821  0.995  0.369- 143 0.97
  11  0.750  0.141  0.458- 181 0.98
  12  0.915  0.249  0.509- 186 0.97
  13  0.583  0.304  0.306- 191 0.97
  14  0.891  0.335  0.616-  97 0.98
  15  0.588  0.360  0.614- 142 0.97
  16  0.593  0.870  0.578- 184 0.99
  17  0.034  0.338  0.652- 190 0.97
  18  0.935  0.420  0.454- 179 0.98
  19  0.746  0.530  0.422-  93 1.00
  20  0.798  0.382  0.635- 171 0.97
  21  0.591  0.569  0.378- 105 0.99
  22  0.718  0.646  0.383- 128 0.99
  23  0.841  0.542  0.420- 134 0.98
  24  0.005  0.604  0.358- 139 0.97
  25  0.828  0.712  0.468- 180 0.99
  26  0.878  0.599  0.721-  59 0.97
  27  0.520  0.986  0.422- 141 0.99
  28  0.223  0.980  0.393- 182 1.00
  29  0.216  0.238  0.319- 197 0.99
  30  0.158  0.330  0.279- 188 0.97
  31  0.342  0.156  0.331- 189 0.98
  32  0.223  0.046  0.323- 196 0.97
  33  0.511  0.826  0.546- 199 0.97
  34  0.388  0.247  0.649-  84 0.97
  35  0.243  0.093  0.599- 135 0.98
  36  0.315  0.487  0.442-  58 0.99
  37  0.409  0.439  0.406- 147 0.98
  38  0.398  0.793  0.389- 185 0.97
  39  0.244  0.655  0.294- 193 0.97
  40  0.312  0.418  0.369- 194 0.98
  41  0.405  0.584  0.339- 195 0.97
  42  0.139  0.488  0.352- 187 0.98
  43  0.593  0.698  0.352-  88 0.97
  44  0.469  0.861  0.444- 198 0.99
  45  0.122  0.323  0.612- 107 0.97
  46  0.073  0.665  0.646- 138 0.97
  47  0.245  0.383  0.682- 183 0.97
  48  0.245  0.815  0.669- 192 0.97
  49  0.606  0.448  0.785-   1 1.11
  50  0.537  0.449  0.812-   1 1.11
  51  0.568  0.320  0.792-   3 1.10
  52  0.507  0.343  0.756-   3 1.10
  53  0.576  0.344  0.728-   3 1.10
  54  0.573  0.587  0.781-   4 1.11
  55  0.621  0.558  0.733-   4 1.10
  56  0.560  0.611  0.718-   4 1.10
  57  0.369  0.648  0.439- 230 1.66 265 1.68
  58  0.347  0.504  0.420-  36 0.99 265 1.67
  59  0.861  0.566  0.697-  26 0.97 236 1.64
  60  0.349  0.958  0.531- 241 1.68 274 1.70
[...]
 218  0.214  0.476  0.510- 178 1.61 177 1.63 137 1.66 174 1.66 229 3.10 262 3.14
 219  0.915  0.756  0.496- 102 1.65 180 1.65  86 1.66  91 1.66 232 2.99 240 3.03
 220  0.521  0.110  0.426- 113 1.64  64 1.65 141 1.66 121 1.67 251 3.08 234 3.12
 221  0.419  0.170  0.589-  84 1.64 201 1.66 101 1.68 161 1.69 274 3.14 261 3.14
 222  0.083  0.139  0.407-  63 1.64 144 1.65  89 1.65 157 1.66 215 3.11 214 3.13 268 3.14
 223  0.702  0.045  0.487-  96 1.64 165 1.65  62 1.65 181 1.66 234 3.09 224 3.10 258 3.15
 224  0.665  0.898  0.437-  95 1.53 165 1.66 125 1.66 156 1.67 270 2.83 257 3.06 223 3.10
 225  0.650  0.504  0.430- 105 1.65 163 1.65  93 1.67  99 1.68 233 3.07
 226  0.198  0.912  0.464- 136 1.50 182 1.64 159 1.66 115 1.67 244 3.01 241 3.06 267 3.07
 227  0.214  0.367  0.604-  83 1.63 178 1.63 107 1.64 183 1.64
 228  0.673  0.813  0.595- 184 1.62 116 1.64  98 1.68 206 1.71 255 2.90
 229  0.217  0.642  0.539- 176 1.63 169 1.63 202 1.65 137 1.65 244 3.09 218 3.10 273 3.12
 230  0.369  0.735  0.459-  73 1.65 104 1.66  57 1.66 185 1.68
 231  0.797  0.888  0.596- 140 1.66  98 1.66 109 1.67 205 1.68 240 2.86 232 3.00 258 3.15
 232  0.880  0.912  0.512-  72 1.60  91 1.62 109 1.65 117 1.65 219 2.99 231 3.00 256 3.05 247 3.13

 233  0.576  0.575  0.512-  99 1.58 166 1.62 100 1.63 133 1.64 243 3.00 225 3.07 275 3.14
 234  0.590  0.115  0.525-  62 1.60 121 1.61 158 1.62 148 1.65 261 2.85 223 3.09 245 3.11 220 3.12

[...]

 272  0.287  0.210  0.459- 173 1.63 122 1.63  67 1.66 152 1.67 250 3.03 268 3.12
 273  0.088  0.625  0.568- 162 1.63 138 1.63 108 1.64 169 1.65 269 3.09 229 3.12 249 3.15
 274  0.353  0.019  0.579- 161 1.63  69 1.66 208 1.69  60 1.70 241 2.38 260 2.74 221 3.14
 275  0.489  0.480  0.573- 133 1.63  77 1.67 127 1.67  85 1.68 252 3.01 233 3.14 276 3.16
 276  0.483  0.494  0.690- 210 1.73   2 1.92 124 1.96  77 1.99 252 3.02 275 3.16

  LATTYP: Found a simple orthorhombic cell.
 ALAT       =    18.1212369514
 B/A-ratio  =     1.2919258579
 C/A-ratio  =     1.4835282260

  Lattice vectors:

 A1 = (   0.0000000000, -18.1212369514,   0.0000000000)
 A2 = ( -23.4112945954,   0.0000000000,   0.0000000000)
 A3 = (   0.0000000000,   0.0000000000, -26.8833665073)

Analysis of symmetry for initial positions (statically):
 Subroutine PRICEL returns:
 Original cell was already a primitive cell.

 Routine SETGRP: Setting up the symmetry group for a
 simple orthorhombic supercell.

 Subroutine GETGRP returns: Found  1 space group operations
 (whereof  1 operations were pure point group operations)
 out of a pool of  8 trial point group operations.

The static configuration has the point symmetry C_1 .

Analysis of symmetry for dynamics (positions and initial velocities):
 Subroutine PRICEL returns:
 Original cell was already a primitive cell.

[...]

The dynamic configuration has the point symmetry C_1 .

Analysis of constrained symmetry for selective dynamics:
 Subroutine PRICEL returns:
 Original cell was already a primitive cell.

 Routine SETGRP: Setting up the symmetry group for a
 simple orthorhombic supercell.

 Subroutine GETGRP returns: Found  1 space group operations
 (whereof  1 operations were pure point group operations)
 out of a pool of  8 trial point group operations.

The constrained configuration has the point symmetry C_1 .

 Subroutine INISYM returns: Found  1 space group operations
 (whereof  1 operations are pure point group operations),
 and found     1 'primitive' translations

 KPOINTS: KPOINTS created by Atomic Simulation Env

Automatic generation of k-mesh.
Space group operators:
 irot       det(A)        alpha          n_x          n_y          n_z        tau_x        tau_y        tau_z
    1     1.000000     0.000000     1.000000     0.000000     0.000000     0.000000     0.000000     0.000000

 Subroutine IBZKPT returns following result:

 Found      5 irreducible k-points:

 Following reciprocal coordinates:
            Coordinates               Weight
  0.000000  0.000000  0.000000      1.000000
  0.333333  0.000000  0.000000      2.000000
  0.000000  0.333333  0.000000      2.000000
  0.333333  0.333333  0.000000      2.000000
 -0.333333  0.333333  0.000000      2.000000

 Following cartesian coordinates:
            Coordinates               Weight
  0.000000  0.000000  0.000000      1.000000
  0.014238  0.000000  0.000000      2.000000
  0.000000  0.018395  0.000000      2.000000
  0.014238  0.018395  0.000000      2.000000
 -0.014238  0.018395  0.000000      2.000000

 SYSTEM =  unknown system
 POSCAR =  C  H  O  Si W

 Startparameter for this run:
   NWRITE =      2    write-flag & timer
   PREC   = normal    normal or accurate (medium, high low for compatibility)
   ISTART =      0    job   : 0-new  1-cont  2-samecut
   ICHARG =      2    charge: 1-file 2-atom 10-const
   ISPIN  =      1    spin polarized calculation?
   LNONCOLLINEAR =      F non collinear calculations
   LSORBIT =      F    spin-orbit coupling
   INIWAV =      1    electr: 0-lowe 1-rand  2-diag
   LASPH  =      T    aspherical Exc in radial PAW
   METAGGA=      F    non-selfconsistent MetaGGA calc.

 Electronic Relaxation 1
   ENCUT  =  500.0 eV  36.75 Ry    6.06 a.u.  42.68 33.04 49.01*2*pi/ulx,y,z
   ENINI  =  500.0     initial cutoff
   ENAUG  =  644.9 eV  augmentation charge cutoff
   NELM   =     60;   NELMIN=  2; NELMDL=  0     # of ELM steps
[...]
   0.379E+02 0.625E+01 -.216E+03   -.414E+02 -.877E+01 0.223E+03   0.357E+01 0.255E+01 -.715E+01   -.239E-03 -.610E-03 0.473E-03
   0.964E+02 0.274E+02 0.131E+03   -.104E+03 -.309E+02 -.130E+03   0.737E+01 0.362E+01 -.921E+00   -.170E-04 0.375E-04 -.733E-04
   0.274E+02 0.736E+02 0.168E+03   -.298E+02 -.810E+02 -.171E+03   0.240E+01 0.751E+01 0.249E+01   -.793E-04 0.661E-04 -.125E-03
   0.833E+02 0.519E+02 0.179E+03   -.905E+02 -.548E+02 -.181E+03   0.733E+01 0.292E+01 0.253E+01   0.294E-04 -.263E-04 -.127E-04
   0.482E+02 -.600E+02 0.163E+03   -.538E+02 0.658E+02 -.164E+03   0.572E+01 -.579E+01 0.116E+01   -.145E-03 -.890E-04 -.214E-04
   0.929E+02 0.257E+02 0.148E+03   -.101E+03 -.271E+02 -.149E+03   0.814E+01 0.144E+01 0.300E+00   -.204E-04 -.887E-04 -.132E-03
   -.679E+01 -.673E+02 0.391E+02   0.907E+01 0.743E+02 -.366E+02   -.236E+01 -.718E+01 -.261E+01   -.154E-03 0.140E-03 -.168E-03
   0.243E+02 -.875E+02 -.127E+02   -.245E+02 0.959E+02 0.131E+02   0.184E+00 -.839E+01 -.307E+00   -.180E-03 0.562E-04 -.157E-03
   -.373E+02 -.789E+02 0.194E+03   0.394E+02 0.859E+02 -.198E+03   -.220E+01 -.716E+01 0.348E+01   -.796E-04 0.719E-04 0.145E-03
   0.536E+02 -.449E+02 -.846E+02   -.592E+02 0.500E+02 0.812E+02   0.558E+01 -.505E+01 0.342E+01   -.316E-03 -.319E-04 -.100E-04
   0.556E+01 -.529E+02 -.132E+03   -.875E+01 0.602E+02 0.135E+03   0.324E+01 -.729E+01 -.235E+01   0.373E-03 -.109E-02 -.525E-03
   0.603E+02 -.122E+02 -.713E+02   -.672E+02 0.106E+02 0.680E+02   0.688E+01 0.159E+01 0.327E+01   -.538E-03 -.112E-03 -.533E-03
   -.283E+01 -.845E+02 -.190E+03   0.298E+01 0.916E+02 0.194E+03   -.158E+00 -.717E+01 -.435E+01   -.161E-03 -.127E-03 0.123E-03
   -.344E+02 0.208E+02 0.986E+02   0.393E+02 -.256E+02 -.103E+03   -.492E+01 0.497E+01 0.435E+01   -.190E-03 0.889E-04 -.102E-03
   -.752E+02 0.279E+02 0.968E+02   0.817E+02 -.310E+02 -.964E+02   -.678E+01 0.325E+01 -.455E+00   -.233E-03 0.204E-04 -.215E-04
   0.407E+02 0.534E+02 -.189E+03   -.451E+02 -.559E+02 0.196E+03   0.435E+01 0.246E+01 -.678E+01   0.546E-03 -.970E-04 -.398E-03
   0.284E+02 -.476E+02 0.164E+03   -.306E+02 0.548E+02 -.166E+03   0.234E+01 -.731E+01 0.185E+01   -.909E-04 -.442E-05 0.210E-03
   -.291E+02 0.711E+02 0.148E+03   0.291E+02 -.786E+02 -.148E+03   0.914E-01 0.772E+01 -.584E+00   -.180E-03 -.450E-04 0.822E-04
   -.618E+02 -.776E+02 0.116E+03   0.664E+02 0.842E+02 -.117E+03   -.469E+01 -.668E+01 0.105E+01   -.181E-03 -.153E-04 0.111E-04
   0.120E+03 -.102E+02 0.128E+03   -.129E+03 0.104E+02 -.127E+03   0.828E+01 -.202E+00 -.538E+00   -.160E-04 -.123E-05 -.682E-04
   0.366E+02 0.469E+01 0.716E+02   -.442E+02 -.380E+01 -.710E+02   0.779E+01 -.934E+00 -.610E+00   -.144E-03 -.388E-04 -.137E-03
   -.615E+02 -.438E+02 -.208E+03   0.650E+02 0.487E+02 0.213E+03   -.351E+01 -.495E+01 -.584E+01   0.261E-03 0.438E-03 0.221E-04
   0.453E+02 0.595E+02 0.775E+02   -.486E+02 -.656E+02 -.741E+02   0.328E+01 0.627E+01 -.354E+01   -.100E-03 -.219E-04 -.185E-04
   -.155E+02 -.346E+02 0.129E+03   0.158E+02 0.410E+02 -.132E+03   -.263E+00 -.677E+01 0.317E+01   0.957E-04 -.864E-04 0.939E-04
   0.192E+02 -.453E+02 0.180E+03   -.234E+02 0.510E+02 -.182E+03   0.441E+01 -.594E+01 0.228E+01   0.928E-04 0.369E-04 -.335E-04
   -.185E+01 -.366E+02 0.238E+03   0.238E+01 0.404E+02 -.245E+03   -.515E+00 -.386E+01 0.729E+01   0.635E-04 0.268E-04 0.372E-06
   0.443E+02 -.135E+02 0.191E+03   -.504E+02 0.169E+02 -.195E+03   0.618E+01 -.354E+01 0.405E+01   0.111E-03 0.282E-04 0.500E-04
   -.149E+01 0.499E+02 0.228E+03   0.852E+00 -.517E+02 -.236E+03   0.646E+00 0.182E+01 0.809E+01   0.745E-04 -.552E-04 -.298E-05
   0.677E+02 0.649E+01 -.666E+02   -.754E+02 -.674E+01 0.696E+02   0.772E+01 0.263E+00 -.300E+01   0.347E-03 -.389E-04 -.600E-03
   0.321E+02 -.845E+02 -.153E+03   -.340E+02 0.926E+02 0.155E+03   0.191E+01 -.810E+01 -.136E+01   0.854E-05 -.253E-03 -.298E-03
   0.155E+02 0.772E+02 -.105E+03   -.139E+02 -.852E+02 0.104E+03   -.156E+01 0.794E+01 0.122E+01   0.394E-03 -.815E-03 -.328E-03
   0.175E+02 0.170E+02 -.503E+01   -.229E+02 -.194E+02 0.947E+01   0.559E+01 0.252E+01 -.459E+01   0.190E-03 0.462E-04 -.871E-04
   0.286E+02 -.519E+02 0.532E+02   -.338E+02 0.563E+02 -.493E+02   0.525E+01 -.445E+01 -.402E+01   0.154E-03 -.466E-04 0.195E-03
   0.149E+02 -.263E+02 0.208E+03   -.170E+02 0.272E+02 -.216E+03   0.214E+01 -.796E+00 0.797E+01   0.797E-04 -.247E-04 0.730E-04
   -.764E+02 -.273E+02 0.198E+03   0.835E+02 0.283E+02 -.202E+03   -.723E+01 -.106E+01 0.394E+01   0.934E-04 -.724E-05 0.472E-04
   -.829E+02 -.368E+02 0.134E+03   0.899E+02 0.407E+02 -.134E+03   -.716E+01 -.403E+01 -.162E+00   0.159E-03 0.589E-04 0.108E-03
   -.102E+03 0.110E+02 0.154E+03   0.109E+03 -.130E+02 -.155E+03   -.796E+01 0.202E+01 0.105E+01   0.113E-03 -.332E-04 0.179E-03
   0.507E+00 -.695E+02 0.100E+03   0.790E+00 0.762E+02 -.961E+02   -.133E+01 -.693E+01 -.420E+01   0.119E-03 0.848E-05 -.362E-05
   -.325E+02 -.495E+02 0.218E+03   0.364E+02 0.540E+02 -.224E+03   -.406E+01 -.454E+01 0.559E+01   -.697E-04 -.937E-04 0.190E-03
   0.761E+02 0.226E+02 0.109E+03   -.820E+02 -.266E+02 -.111E+03   0.621E+01 0.436E+01 0.246E+01   -.878E-04 -.112E-03 -.399E-04
   0.498E+02 0.521E+02 -.109E+03   -.550E+02 -.584E+02 0.107E+03   0.521E+01 0.632E+01 0.178E+01   0.437E-03 0.649E-03 0.213E-03
   -.167E+02 -.693E+02 -.195E+03   0.190E+02 0.753E+02 0.200E+03   -.228E+01 -.605E+01 -.537E+01   0.287E-03 0.579E-03 0.157E-03
   0.129E+02 0.230E+02 -.225E+03   -.142E+02 -.259E+02 0.233E+03   0.122E+01 0.292E+01 -.778E+01   0.256E-03 -.102E-03 0.703E-03
   0.275E+02 -.754E+02 -.197E+03   -.276E+02 0.823E+02 0.202E+03   0.144E+00 -.694E+01 -.472E+01   -.416E-05 0.229E-03 -.111E-03
   -.735E+02 0.523E+01 -.142E+03   0.787E+02 -.437E+01 0.143E+03   -.521E+01 -.884E+00 -.114E+01   0.242E-03 0.753E-04 0.362E-03
   0.254E+02 -.361E+01 -.174E+03   -.280E+02 0.462E+01 0.179E+03   0.263E+01 -.102E+01 -.458E+01   0.155E-04 0.516E-04 0.424E-03
   -.254E+02 0.588E+02 -.151E+03   0.273E+02 -.621E+02 0.155E+03   -.185E+01 0.332E+01 -.394E+01   0.580E-04 -.126E-03 0.194E-03
   0.505E+02 0.480E+02 -.122E+03   -.558E+02 -.493E+02 0.121E+03   0.540E+01 0.121E+01 0.898E+00   -.209E-03 -.125E-03 0.116E-03
   -.418E+02 0.458E+02 -.833E+02   0.445E+02 -.471E+02 0.788E+02   -.274E+01 0.119E+01 0.460E+01   0.540E-04 -.243E-03 0.189E-03
   -.627E+01 -.389E+02 -.183E+03   0.601E+01 0.407E+02 0.188E+03   0.290E+00 -.179E+01 -.508E+01   0.860E-04 0.185E-03 0.266E-03
   -.701E+02 0.174E+01 -.134E+03   0.754E+02 -.251E+01 0.133E+03   -.528E+01 0.765E+00 0.124E+01   0.721E-04 0.141E-03 0.393E-03
   0.597E+01 -.569E+02 -.132E+03   -.779E+01 0.610E+02 0.129E+03   0.186E+01 -.422E+01 0.328E+01   0.131E-03 0.333E-03 0.377E-03
   -.156E+03 0.483E+02 0.334E+03   0.170E+03 -.597E+02 -.325E+03   -.141E+02 0.115E+02 -.943E+01   0.498E-03 -.107E-02 -.267E-03
   -.177E+03 0.411E+02 0.382E+03   0.205E+03 -.568E+02 -.392E+03   -.279E+02 0.163E+02 0.956E+01   0.931E-03 -.109E-04 0.532E-03
   -.186E+03 0.143E+03 -.948E+03   0.182E+03 -.182E+03 0.949E+03   0.357E+01 0.390E+02 -.115E+01   -.159E-02 -.571E-03 -.630E-02
   -.303E+02 0.256E+02 0.828E+02   0.532E+02 -.351E+02 -.112E+03   -.229E+02 0.951E+01 0.295E+02   -.251E-03 0.526E-04 0.194E-03
[...]
   -.520E+02 -.131E+02 0.214E+03   0.515E+02 0.118E+02 -.216E+03   0.452E+00 0.751E+00 0.891E+00   -.108E-02 0.796E-03 -.684E-03
   0.742E+02 -.391E+02 -.145E+03   -.685E+02 0.372E+02 0.142E+03   -.574E+01 0.194E+01 0.314E+01   -.111E-02 0.135E-03 -.164E-02
   -.873E+02 -.230E+02 0.376E+03   0.874E+02 0.210E+02 -.378E+03   -.165E+00 0.202E+01 0.173E+01   0.518E-03 -.145E-03 0.492E-03
   -.609E+02 0.962E+02 -.267E+03   0.605E+02 -.965E+02 0.268E+03   0.332E+00 0.240E+00 -.166E+01   0.616E-03 0.635E-04 -.611E-03
   -.103E+02 0.133E+01 0.287E+02   0.110E+02 -.451E+01 -.311E+02   -.996E+00 0.963E+01 0.182E+01   0.382E-03 0.120E-03 0.105E-03
   -.281E+02 0.854E+02 0.455E+03   0.281E+02 -.837E+02 -.456E+03   -.448E-01 -.174E+01 0.154E+01   0.534E-03 -.259E-03 -.329E-03
   0.934E+02 -.526E+01 -.282E+02   -.921E+02 0.748E+01 0.285E+02   -.132E+01 -.236E+01 -.623E+00   0.138E-03 0.101E-02 -.134E-02
   0.114E+03 0.179E+02 0.146E+03   -.109E+03 -.107E+02 -.150E+03   -.282E+02 -.231E+02 0.862E+01   -.970E-03 -.647E-03 -.683E-03
   -.197E+02 0.968E+02 -.407E+03   0.215E+02 -.952E+02 0.406E+03   -.174E+01 -.155E+01 0.450E+00   0.122E-02 0.792E-04 -.157E-02
   -.298E+02 0.309E+02 0.126E+03   0.298E+02 -.318E+02 -.126E+03   -.213E+00 0.851E+00 -.102E+01   0.166E-02 -.318E-03 -.880E-03
   0.567E+02 -.177E+02 -.367E+03   -.573E+02 0.185E+02 0.368E+03   0.535E+00 -.753E+00 -.914E+00   -.705E-04 0.865E-03 0.600E-03
   0.586E+02 -.574E+02 -.314E+03   -.595E+02 0.528E+02 0.314E+03   0.914E+00 0.461E+01 -.110E+00   -.540E-03 -.536E-03 -.516E-03
   0.975E+02 0.640E+02 -.195E+03   -.935E+02 -.613E+02 0.198E+03   -.415E+01 -.266E+01 -.229E+01   -.139E-02 -.934E-03 -.434E-02
   0.121E+03 0.339E+02 -.789E+03   -.119E+03 -.364E+02 0.791E+03   -.225E+01 0.249E+01 -.169E+01   -.424E-02 -.249E-02 0.430E-03
   0.315E+03 -.230E+03 -.130E+03   -.597E-12 0.803E-12 0.409E-11   -.315E+03 0.230E+03 0.130E+03   -.239E-01 0.924E-02 -.163E+00

 POSITION                                       TOTAL-FORCE (eV/Angst)
     13.11745      7.92812     20.88485        -0.005434     -0.010171      0.001318
     12.70054      8.95413     19.84349         0.006746     -0.004006      0.006424
     12.92924      6.45243     20.49066        -0.010421     -0.015717     -0.007277
     13.47393     10.27450     19.94538         0.011628     -0.010674     -0.012582
     17.80793      1.86458     17.50776         0.009642      0.008191     -0.018164
     21.68887      5.04983      9.57948         0.101735      0.073028     -0.025261
     18.57311      3.75615     10.03977         0.037442      0.113960      0.046232
     22.81522     17.09936      8.74523         0.108562      0.056480      0.029768
     14.64921     17.45932     10.08748         0.054033     -0.004277     -0.058683
     19.20987     18.03075      9.91976         0.120085      0.024161     -0.000563
     17.55831      2.55833     12.31361        -0.109082     -0.219119     -0.130526
     21.43053      4.52029     13.69512        -0.000405      0.000068     -0.000994
     13.66032      5.51363      8.22435        -0.101212     -0.128784      0.043319
     20.86985      6.06509     16.56083        -0.001207     -0.000385      0.001435
     13.76240      6.52892     16.50910        -0.000090      0.000985      0.002303
     13.88319     15.76475     15.53725         0.003305      0.005990      0.000199
      0.80097      6.12631     17.52033        -0.000227      0.007083      0.004265
     21.89589      7.60212     12.20778        -0.088800      0.132177      0.070601
     17.46807      9.60991     11.35790        -0.318767      0.159107     -0.036592
     18.67430      6.92437     17.05981        -0.009612     -0.005723      0.016337
     13.83846     10.30524     10.16285         0.096575     -0.185470      0.062905
     16.81947     11.70510     10.30871        -0.029096      0.240857     -0.018731
     19.69248      9.82944     11.28016        -0.106919     -0.102709      0.013283
      0.11154     10.94157      9.61829         0.110545     -0.009175     -0.029826
     19.39295     12.90878     12.57986         0.231270     -0.038555     -0.052428
     20.54439     10.85183     19.38496        -0.003548     -0.006083     -0.007050
     12.17365     17.85965     11.33680         0.012869      0.130922     -0.099518
      5.22293     17.76162     10.57067        -0.011652     -0.354039      0.119451
      5.06559      4.31016      8.58199         0.178779     -0.200109      0.070853
      3.68730      5.97650      7.50000         0.013958     -0.078910      0.117163
      7.99605      2.81941      8.89229         0.084289     -0.090489      0.065794
      5.21407      0.82921      8.67630         0.002746      0.017995      0.150633
     11.95906     14.96965     14.69190        -0.002967     -0.000214      0.002248
      9.07764      4.48110     17.45394        -0.002198     -0.001195     -0.006313
      5.69541      1.68500     16.09604         0.002074      0.008734      0.000259
      7.38348      8.82752     11.89413         0.227937      0.093698     -0.169624
      9.57419      7.95042     10.90633         0.119227     -0.109077     -0.118264
      9.32939     14.37220     10.45190         0.056464     -0.000959      0.127877
      5.71709     11.87720      7.91250        -0.105719     -0.017350      0.040697
      7.29827      7.58330      9.92689        -0.166400     -0.092596     -0.010505
      9.49268     10.58787      9.10862        -0.110987      0.037484     -0.004477
      3.26254      8.84269      9.46105        -0.025336     -0.205886     -0.121025
     13.88920     12.64839      9.47364        -0.128613     -0.096598      0.165308
     10.98006     15.61013     11.93160         0.312184      0.332393      0.161240
      2.85761      5.84872     16.43963        -0.011354     -0.015786     -0.004930
      1.71247     12.04440     17.36285        -0.002478     -0.008008     -0.004674
      5.73870      6.94019     18.33779         0.000939      0.003265     -0.011926
      5.72483     14.76687     17.99116        -0.000064     -0.004622     -0.000785
     14.18448      8.11468     21.10986        -0.008686     -0.013855     -0.001700
     12.57506      8.14021     21.82642        -0.006755     -0.004097     -0.005091
     13.30641      5.79500     21.28905        -0.011970     -0.009162     -0.008307
     11.86971      6.22064     20.31963        -0.007542     -0.002479     -0.004981
     13.48302      6.22495     19.56646        -0.007398     -0.005177      0.000389
     13.41199     10.63213     20.98969         0.014504     -0.017333     -0.007806
     14.53741     10.11111     19.70323         0.002806     -0.021754     -0.012474
     13.10036     11.07840     19.29981         0.011082     -0.013055     -0.003188
      8.63740     11.74900     11.80180        -0.219123      0.129337     -0.191364
      8.11940      9.13372     11.30145        -0.090760      0.612630      0.025955
     20.14864     10.25864     18.72915         0.005197      0.003522      0.001369
      8.16425     17.36608     14.27034         0.009154     -0.013396      0.002414
[...]
      5.71814      6.71222     11.31648         0.017359     -0.128652     -0.103363
     15.41693      5.98005     12.10687        -0.152597     -0.472397     -0.816337
     10.79027      5.76086     14.21519        -0.002973     -0.001813     -0.000736
      7.89661     10.69049     10.72869        -0.135722     -0.085629     -0.058796
     18.80119      8.63369     15.58492         0.005235     -0.004925     -0.002870
      1.62029     16.28844     12.91761        -0.328662      6.439926     -0.543701
      4.96103      2.61769     10.04353        -0.074379     -0.038114      0.068692
      1.83153      8.95162     13.29887         0.024487     -0.147299     -0.313733
     13.05344     15.44546     12.76235       -22.330618    -15.850455      4.700930
     16.81328     10.59382     16.38628         0.002726     -0.003141      0.000820
      6.71066      3.80730     12.34244        -0.242770     -0.005125     -0.708093
      2.06218     11.33421     15.25962         0.002879      0.004615     -0.001755
      8.27150      0.34876     15.55340         0.006380     -0.007638     -0.000390
     11.43930      8.69336     15.39657        -0.002835     -0.004080     -0.003479
     11.29585      8.95095     18.53906        -0.007344     -0.016979      0.009112
    total drift:                                0.441918      0.451875      0.156204

  FREE ENERGIE OF THE ION-ELECTRON SYSTEM (eV)
  free  energy   TOTEN  =     -1887.24423854 eV

  energy  without entropy=    -1887.24423854  energy(sigma->0) =    -1887.24423854

 d Force = 0.1841388E-02[-0.922E-04, 0.377E-02]  d Energy = 0.1868471E-02-0.271E-04
 d Force =-0.4650440E+00[-0.473E+00,-0.457E+00]  d Ewald  =-0.4650431E+00-0.850E-06

 stress matrix after NEB project (eV)
    -32.75736      0.18317      0.18402
      0.18317    -33.50426      0.07483
      0.18402      0.07483    -25.30118
  FORCES: max atom, RMS     0.033869    0.008217
  FORCE total and by dimension    0.136516    0.029590
  Stress total and by dimension   53.252946   33.504264
 Quasi-Newton relaxation of ions (Broydens 2nd method)
  g(Force)  = 0.899E-03   g(Stress)= 0.000E+00

 retain information from N=  1 steps
 eigenvalues of (default step * inverse Hessian matrix)
  average eigenvalue of G=   0.1955
 eigenvalue spectrum of G is  0.1955

 reached required accuracy - stopping structural energy minimisation