 vasp.5.4.4.18Apr17-6-g9f103f2a35 (build Oct 20 2021 08:33:53) complex
 executed on             LinuxGNU date 2024.05.04  11:50:12

 INCAR:
 POTCAR:    PAW_PBE C 08Apr2002
 POTCAR:    PAW_PBE H 15Jun2001
 POTCAR:    PAW_PBE O 08Apr2002
 POTCAR:    PAW_PBE Si 05Jan2001
 POTCAR:    PAW_PBE W 08Apr2002
 POTCAR:    PAW_PBE C 08Apr2002
   VRHFIN =C: s2p2

   TITEL  = PAW_PBE C 08Apr2002
   POMASS =   12.011; ZVAL   =    4.000    mass and valenz
   ENMAX  =  400.000; ENMIN  =  300.000 eV

 POTCAR:    PAW_PBE H 15Jun2001
   VRHFIN =H: ultrasoft test

   TITEL  = PAW_PBE H 15Jun2001
   POMASS =    1.000; ZVAL   =    1.000    mass and valenz
   ENMAX  =  250.000; ENMIN  =  200.000 eV

 POTCAR:    PAW_PBE O 08Apr2002
   VRHFIN =O: s2p4

[...]

 POTCAR:    PAW_PBE Si 05Jan2001
   VRHFIN =Si: s2p2

   TITEL  = PAW_PBE Si 05Jan2001
   POMASS =   28.085; ZVAL   =    4.000    mass and valenz
   ENMAX  =  245.345; ENMIN  =  184.009 eV

 POTCAR:    PAW_PBE W 08Apr2002
   VRHFIN =W : 6s5d

   TITEL  = PAW_PBE W 08Apr2002
   POMASS =  183.850; ZVAL   =    6.000    mass and valenz
   ENMAX  =  223.057; ENMIN  =  167.293 eV

 Optimization of the real space projectors (new method)

 maximal supplied QI-value         = 25.13
 optimisation between [QCUT,QGAM] = [ 11.31, 22.87] = [ 35.82,146.48] Ry
 Optimized for a Real-space Cutoff    1.00 Angstroem

   l    n(q)    QCUT    max X(q) W(low)/X(q) W(high)/X(q)  e(spline)
   0      7    11.310   115.676    0.43E-03    0.13E-02    0.19E-06
   0      7    11.310    87.132    0.43E-03    0.13E-02    0.18E-06
   1      6    11.310     4.429    0.42E-03    0.74E-03    0.11E-06
   1      6    11.310     2.733    0.34E-03    0.55E-03    0.92E-07
 Optimization of the real space projectors (new method)

[...]

   l    n(q)    QCUT    max X(q) W(low)/X(q) W(high)/X(q)  e(spline)
   0      8    11.310   159.560    0.27E-03    0.30E-03    0.39E-07
   0      8    11.310   115.863    0.27E-03    0.30E-03    0.38E-07
   1      7    11.310    88.339    0.28E-03    0.28E-03    0.77E-07
   1      7    11.310    48.592    0.27E-03    0.27E-03    0.74E-07
 Optimization of the real space projectors (new method)

 maximal supplied QI-value         = 13.61
 optimisation between [QCUT,QGAM] = [ 11.43, 22.86] = [ 36.58,146.31] Ry
 Optimized for a Real-space Cutoff    1.56 Angstroem

   l    n(q)    QCUT    max X(q) W(low)/X(q) W(high)/X(q)  e(spline)
   2     10    11.429   130.855    0.22E-03    0.64E-03    0.11E-05
   2     10    11.429   114.007    0.22E-03    0.64E-03    0.11E-05
   0     11    11.429    84.709    0.39E-04    0.67E-04    0.23E-06
   0     11    11.429    49.163    0.35E-04    0.62E-04    0.21E-06
   1     10    11.429    15.765    0.84E-04    0.15E-03    0.24E-06
   1     10    11.429    10.638    0.58E-04    0.12E-03    0.19E-06

  PAW_PBE C 08Apr2002                   :
  PAW_PBE H 15Jun2001                   :
  PAW_PBE O 08Apr2002                   :
  PAW_PBE Si 05Jan2001                  :
  PAW_PBE W 08Apr2002                   :

 POSCAR:  C  H  O Si  W
  positions in direct lattice
  velocities in cartesian coordinates
 exchange correlation table for  LEXCH =        9
   RHO(1)=    0.500       N(1)  =     2000
   RHO(2)=  100.500       N(2)  =     4000

 VTST: version 3.2, (02/03/18)

 CHAIN: initializing optimizer

 OPT: Using VASP QUASI-newton optimizer
 CHAIN: Read ICHAIN            0

 POSCAR:  C  H  O Si  W
  positions in direct lattice
  velocities in cartesian coordinates

 ion  position               nearest neighbor table
   1  0.583  0.477  0.715-  50 1.10  49 1.10   4 1.54 276 2.17
   2  0.507  0.621  0.787-  52 1.10  53 1.10  51 1.11   3 1.53
   3  0.542  0.582  0.747-  54 1.10   2 1.53   4 1.54 276 2.18
   4  0.587  0.525  0.762-  56 1.10  55 1.11   3 1.54   1 1.54 276 2.77
   5  0.761  0.104  0.651- 131 0.97
   6  0.926  0.279  0.356-  79 0.98
   7  0.793  0.207  0.373- 114 0.97
   8  0.975  0.944  0.325- 123 0.97
   9  0.626  0.963  0.375- 125 0.98
  10  0.821  0.995  0.369- 143 0.97
  11  0.750  0.141  0.458- 181 0.98
  12  0.915  0.249  0.510- 186 0.97
  13  0.583  0.304  0.306- 191 0.97
  14  0.893  0.335  0.616-  97 0.98
  15  0.599  0.363  0.612- 142 0.97
  16  0.594  0.871  0.578- 184 0.99
  17  0.034  0.338  0.653- 190 0.97
  18  0.935  0.420  0.454- 179 0.98
  19  0.746  0.530  0.422-  93 1.00
  20  0.803  0.386  0.638- 171 0.97
  21  0.591  0.569  0.378- 105 0.99
  22  0.718  0.646  0.383- 128 0.99
  23  0.841  0.542  0.420- 134 0.98
  24  0.005  0.604  0.358- 139 0.97
  25  0.828  0.712  0.468- 180 0.99
  26  0.879  0.598  0.721-  59 0.97
  27  0.520  0.986  0.422- 141 0.99
  28  0.223  0.980  0.393- 182 1.00
  29  0.216  0.238  0.319- 197 0.99
  30  0.158  0.330  0.279- 188 0.97
  31  0.342  0.156  0.331- 189 0.98
  32  0.223  0.046  0.323- 196 0.97
  33  0.511  0.827  0.547- 199 0.97
  34  0.376  0.241  0.648-  84 0.97
  35  0.244  0.094  0.599- 135 0.98
  36  0.315  0.487  0.442-  58 0.99
  37  0.409  0.439  0.406- 147 0.98
  38  0.398  0.793  0.389- 185 0.97
  39  0.244  0.655  0.294- 193 0.97
  40  0.312  0.418  0.369- 194 0.98
  41  0.405  0.584  0.339- 195 0.97
  42  0.139  0.488  0.352- 187 0.98
  43  0.593  0.698  0.352-  88 0.97
  44  0.469  0.861  0.444- 198 0.99
  45  0.123  0.326  0.613- 107 0.97
  46  0.075  0.663  0.647- 138 0.97
  47  0.244  0.389  0.682- 183 0.97
  48  0.247  0.816  0.670- 192 0.97
  49  0.588  0.417  0.720-   1 1.10
  50  0.611  0.497  0.685-   1 1.10
  51  0.534  0.659  0.808-   2 1.11
  52  0.488  0.581  0.813-   2 1.10
  53  0.472  0.654  0.770-   2 1.10
  54  0.561  0.623  0.721-   3 1.10
  55  0.630  0.548  0.770-   4 1.11
  56  0.573  0.494  0.795-   4 1.10
  57  0.369  0.648  0.439- 230 1.66 265 1.68
  58  0.347  0.504  0.420-  36 0.99 265 1.67
  59  0.862  0.566  0.696-  26 0.97 236 1.64
  60  0.349  0.959  0.531- 241 1.68 274 1.70
[...]
 218  0.214  0.476  0.510- 178 1.61 177 1.63 137 1.66 174 1.66 229 3.10 262 3.14
 219  0.915  0.756  0.496- 102 1.65 180 1.65  86 1.66  91 1.66 232 2.99 240 3.03
 220  0.521  0.110  0.426- 113 1.64  64 1.65 141 1.66 121 1.67 251 3.08 234 3.12
 221  0.419  0.170  0.589-  84 1.64 201 1.65 101 1.68 161 1.69 261 3.14 274 3.14
 222  0.083  0.139  0.407-  63 1.64 144 1.65  89 1.65 157 1.66 215 3.11 214 3.13 268 3.14
 223  0.702  0.045  0.487-  96 1.64 165 1.65  62 1.65 181 1.66 234 3.09 224 3.10 258 3.15
 224  0.665  0.898  0.437-  95 1.53 165 1.66 125 1.66 156 1.67 270 2.83 257 3.06 223 3.10
 225  0.650  0.504  0.430- 105 1.65 163 1.65  93 1.67  99 1.68 233 3.08
 226  0.198  0.912  0.464- 136 1.50 182 1.64 159 1.66 115 1.67 244 3.01 241 3.07 267 3.07
 227  0.215  0.368  0.604-  83 1.63 178 1.63 107 1.64 183 1.65
 228  0.674  0.814  0.595- 184 1.62 116 1.64  98 1.68 206 1.71 255 2.91
 229  0.217  0.642  0.539- 176 1.63 169 1.63 202 1.65 137 1.65 244 3.09 218 3.10 273 3.12
 230  0.369  0.735  0.459-  73 1.65 104 1.65  57 1.66 185 1.68
 231  0.798  0.888  0.595- 140 1.66  98 1.66 109 1.66 205 1.68 240 2.86 232 2.99 258 3.15
 232  0.880  0.912  0.512-  72 1.60  91 1.62 109 1.65 117 1.66 231 2.99 219 2.99 256 3.05 247 3.13

 233  0.577  0.576  0.512-  99 1.58 166 1.63 100 1.63 133 1.65 243 3.00 225 3.08 217 3.12
 234  0.590  0.115  0.525-  62 1.60 121 1.60 158 1.62 148 1.65 261 2.85 223 3.09 245 3.11 220 3.12

[...]

 272  0.287  0.210  0.459- 173 1.63 122 1.63  67 1.66 152 1.67 250 3.03 268 3.12
 273  0.088  0.625  0.568- 162 1.63 138 1.64 108 1.64 169 1.65 269 3.09 229 3.12
 274  0.353  0.020  0.579- 161 1.63  69 1.66 208 1.69  60 1.70 241 2.38 260 2.74 221 3.14
 275  0.487  0.482  0.574- 133 1.64  77 1.66 127 1.68  85 1.68 252 2.95
 276  0.496  0.507  0.698- 210 1.72 124 1.95  77 1.98   1 2.17   3 2.18   4 2.77 252 3.07

  LATTYP: Found a simple orthorhombic cell.
 ALAT       =    18.1212369514
 B/A-ratio  =     1.2919258579
 C/A-ratio  =     1.4835282260

  Lattice vectors:

 A1 = (   0.0000000000, -18.1212369514,   0.0000000000)
 A2 = ( -23.4112945954,   0.0000000000,   0.0000000000)
 A3 = (   0.0000000000,   0.0000000000, -26.8833665073)

Analysis of symmetry for initial positions (statically):
 Subroutine PRICEL returns:
 Original cell was already a primitive cell.

 Routine SETGRP: Setting up the symmetry group for a
 simple orthorhombic supercell.

 Subroutine GETGRP returns: Found  1 space group operations
 (whereof  1 operations were pure point group operations)
 out of a pool of  8 trial point group operations.

The static configuration has the point symmetry C_1 .

Analysis of symmetry for dynamics (positions and initial velocities):
 Subroutine PRICEL returns:
 Original cell was already a primitive cell.

[...]

The dynamic configuration has the point symmetry C_1 .

Analysis of constrained symmetry for selective dynamics:
 Subroutine PRICEL returns:
 Original cell was already a primitive cell.

 Routine SETGRP: Setting up the symmetry group for a
 simple orthorhombic supercell.

 Subroutine GETGRP returns: Found  1 space group operations
 (whereof  1 operations were pure point group operations)
 out of a pool of  8 trial point group operations.

The constrained configuration has the point symmetry C_1 .

 Subroutine INISYM returns: Found  1 space group operations
 (whereof  1 operations are pure point group operations),
 and found     1 'primitive' translations

 KPOINTS: KPOINTS created by Atomic Simulation Env

Automatic generation of k-mesh.
Space group operators:
 irot       det(A)        alpha          n_x          n_y          n_z        tau_x        tau_y        tau_z
    1     1.000000     0.000000     1.000000     0.000000     0.000000     0.000000     0.000000     0.000000

 Subroutine IBZKPT returns following result:

 Found      5 irreducible k-points:

 Following reciprocal coordinates:
            Coordinates               Weight
  0.000000  0.000000  0.000000      1.000000
  0.333333  0.000000  0.000000      2.000000
  0.000000  0.333333  0.000000      2.000000
  0.333333  0.333333  0.000000      2.000000
 -0.333333  0.333333  0.000000      2.000000

 Following cartesian coordinates:
            Coordinates               Weight
  0.000000  0.000000  0.000000      1.000000
  0.014238  0.000000  0.000000      2.000000
  0.000000  0.018395  0.000000      2.000000
  0.014238  0.018395  0.000000      2.000000
 -0.014238  0.018395  0.000000      2.000000

 SYSTEM =  unknown system
 POSCAR =   C  H  O Si  W

 Startparameter for this run:
   NWRITE =      2    write-flag & timer
   PREC   = normal    normal or accurate (medium, high low for compatibility)
   ISTART =      0    job   : 0-new  1-cont  2-samecut
   ICHARG =      2    charge: 1-file 2-atom 10-const
   ISPIN  =      1    spin polarized calculation?
   LNONCOLLINEAR =      F non collinear calculations
   LSORBIT =      F    spin-orbit coupling
   INIWAV =      1    electr: 0-lowe 1-rand  2-diag
   LASPH  =      T    aspherical Exc in radial PAW
   METAGGA=      F    non-selfconsistent MetaGGA calc.

 Electronic Relaxation 1
   ENCUT  =  500.0 eV  36.75 Ry    6.06 a.u.  42.68 33.04 49.01*2*pi/ulx,y,z
   ENINI  =  500.0     initial cutoff
   ENAUG  =  644.9 eV  augmentation charge cutoff
   NELM   =     60;   NELMIN=  2; NELMDL=  0     # of ELM steps
[...]
   0.395E+02 0.423E+01 -.216E+03   -.432E+02 -.665E+01 0.223E+03   0.367E+01 0.244E+01 -.718E+01   -.762E-03 -.216E-02 0.139E-02
   0.964E+02 0.274E+02 0.131E+03   -.104E+03 -.310E+02 -.130E+03   0.737E+01 0.362E+01 -.921E+00   0.176E-03 -.120E-03 0.446E-04
   0.276E+02 0.735E+02 0.168E+03   -.299E+02 -.809E+02 -.171E+03   0.240E+01 0.751E+01 0.249E+01   0.176E-03 -.189E-03 -.475E-04
   0.833E+02 0.518E+02 0.179E+03   -.905E+02 -.547E+02 -.181E+03   0.733E+01 0.292E+01 0.253E+01   -.738E-06 0.283E-04 0.357E-03
   0.483E+02 -.603E+02 0.163E+03   -.539E+02 0.661E+02 -.164E+03   0.572E+01 -.579E+01 0.116E+01   0.233E-03 -.254E-03 0.281E-03
   0.930E+02 0.255E+02 0.148E+03   -.101E+03 -.269E+02 -.149E+03   0.814E+01 0.144E+01 0.300E+00   0.299E-03 -.194E-03 0.448E-03
   -.653E+01 -.676E+02 0.388E+02   0.882E+01 0.746E+02 -.364E+02   -.236E+01 -.718E+01 -.261E+01   0.108E-03 -.561E-03 -.363E-03
   0.246E+02 -.873E+02 -.147E+02   -.248E+02 0.957E+02 0.152E+02   0.183E+00 -.839E+01 -.430E+00   0.109E-02 -.115E-02 -.759E-03
   -.372E+02 -.789E+02 0.194E+03   0.393E+02 0.859E+02 -.197E+03   -.220E+01 -.716E+01 0.348E+01   0.502E-04 -.121E-03 -.639E-04
   0.536E+02 -.442E+02 -.843E+02   -.592E+02 0.493E+02 0.809E+02   0.555E+01 -.505E+01 0.348E+01   0.567E-03 0.135E-02 -.255E-02
   -.750E+01 -.588E+02 -.130E+03   0.604E+01 0.668E+02 0.132E+03   0.148E+01 -.800E+01 -.203E+01   -.132E-03 -.128E-02 -.664E-03
   0.606E+02 -.142E+02 -.700E+02   -.675E+02 0.127E+02 0.668E+02   0.692E+01 0.154E+01 0.327E+01   0.185E-02 -.113E-02 -.181E-02
   -.109E+01 -.819E+02 -.193E+03   0.985E+00 0.889E+02 0.198E+03   0.102E+00 -.696E+01 -.467E+01   -.174E-03 0.454E-03 -.164E-04
   -.345E+02 0.211E+02 0.987E+02   0.393E+02 -.259E+02 -.103E+03   -.492E+01 0.497E+01 0.435E+01   0.141E-03 0.349E-04 -.259E-03
   -.751E+02 0.283E+02 0.970E+02   0.816E+02 -.314E+02 -.966E+02   -.678E+01 0.325E+01 -.455E+00   0.292E-03 0.467E-03 -.310E-03
   0.343E+02 0.498E+02 -.196E+03   -.380E+02 -.519E+02 0.203E+03   0.370E+01 0.201E+01 -.727E+01   -.842E-03 0.612E-03 0.170E-02
   0.287E+02 -.472E+02 0.164E+03   -.309E+02 0.543E+02 -.166E+03   0.234E+01 -.731E+01 0.185E+01   0.221E-03 0.430E-03 -.312E-03
   -.291E+02 0.713E+02 0.149E+03   0.290E+02 -.788E+02 -.148E+03   0.916E-01 0.772E+01 -.584E+00   0.120E-03 0.545E-03 0.282E-03
   -.618E+02 -.774E+02 0.116E+03   0.664E+02 0.840E+02 -.117E+03   -.469E+01 -.669E+01 0.105E+01   0.114E-04 0.201E-03 -.679E-04
   0.120E+03 -.101E+02 0.128E+03   -.128E+03 0.103E+02 -.127E+03   0.828E+01 -.202E+00 -.538E+00   0.157E-03 0.142E-03 0.110E-03
   0.365E+02 0.470E+01 0.720E+02   -.440E+02 -.382E+01 -.715E+02   0.779E+01 -.934E+00 -.609E+00   -.383E-03 0.711E-03 0.273E-03
   -.637E+02 -.424E+02 -.207E+03   0.674E+02 0.473E+02 0.213E+03   -.367E+01 -.486E+01 -.583E+01   0.898E-03 0.115E-02 -.583E-05
   0.453E+02 0.591E+02 0.774E+02   -.486E+02 -.652E+02 -.739E+02   0.328E+01 0.627E+01 -.354E+01   0.314E-03 0.346E-04 -.136E-03
   -.156E+02 -.348E+02 0.129E+03   0.158E+02 0.412E+02 -.132E+03   -.263E+00 -.677E+01 0.317E+01   -.288E-03 0.689E-04 -.426E-03
   0.191E+02 -.453E+02 0.180E+03   -.234E+02 0.510E+02 -.182E+03   0.441E+01 -.594E+01 0.228E+01   -.170E-03 -.245E-04 0.735E-04
   -.191E+01 -.365E+02 0.238E+03   0.244E+01 0.403E+02 -.245E+03   -.515E+00 -.386E+01 0.729E+01   -.640E-04 -.336E-04 0.179E-03
   0.442E+02 -.137E+02 0.191E+03   -.503E+02 0.171E+02 -.195E+03   0.618E+01 -.353E+01 0.405E+01   -.655E-04 -.652E-04 -.126E-03
   -.154E+01 0.497E+02 0.228E+03   0.903E+00 -.515E+02 -.236E+03   0.646E+00 0.182E+01 0.809E+01   -.167E-03 0.235E-04 0.434E-04
   0.674E+02 0.417E+01 -.669E+02   -.751E+02 -.434E+01 0.700E+02   0.772E+01 0.181E+00 -.307E+01   -.326E-02 -.777E-04 -.113E-02
   0.536E+02 -.790E+02 -.151E+03   -.581E+02 0.861E+02 0.151E+03   0.444E+01 -.711E+01 -.855E+00   -.103E-03 0.841E-03 0.110E-03
   0.166E+02 0.766E+02 -.105E+03   -.151E+02 -.846E+02 0.104E+03   -.142E+01 0.797E+01 0.125E+01   -.462E-03 -.481E-03 -.144E-02
   0.172E+02 0.174E+02 -.534E+01   -.226E+02 -.199E+02 0.979E+01   0.559E+01 0.252E+01 -.459E+01   -.121E-02 0.266E-03 0.742E-04
   0.283E+02 -.516E+02 0.526E+02   -.334E+02 0.560E+02 -.487E+02   0.525E+01 -.445E+01 -.402E+01   -.393E-03 -.130E-03 -.602E-03
   0.149E+02 -.264E+02 0.208E+03   -.170E+02 0.272E+02 -.216E+03   0.214E+01 -.795E+00 0.797E+01   -.458E-04 -.517E-04 0.213E-03
   -.764E+02 -.272E+02 0.198E+03   0.835E+02 0.283E+02 -.202E+03   -.723E+01 -.106E+01 0.394E+01   -.184E-03 0.923E-05 0.196E-03
   -.831E+02 -.366E+02 0.134E+03   0.900E+02 0.405E+02 -.134E+03   -.716E+01 -.403E+01 -.162E+00   -.489E-03 0.571E-04 0.470E-04
   -.102E+03 0.113E+02 0.154E+03   0.109E+03 -.132E+02 -.155E+03   -.796E+01 0.202E+01 0.105E+01   -.181E-03 0.169E-03 -.116E-03
   0.421E+00 -.694E+02 0.100E+03   0.877E+00 0.761E+02 -.960E+02   -.133E+01 -.693E+01 -.420E+01   0.330E-04 0.336E-04 0.240E-03
   -.324E+02 -.494E+02 0.219E+03   0.363E+02 0.538E+02 -.224E+03   -.406E+01 -.454E+01 0.559E+01   0.961E-04 0.165E-03 0.310E-03
   0.761E+02 0.221E+02 0.109E+03   -.820E+02 -.262E+02 -.112E+03   0.621E+01 0.436E+01 0.246E+01   0.165E-03 0.259E-04 -.593E-03
   0.509E+02 0.509E+02 -.110E+03   -.562E+02 -.570E+02 0.108E+03   0.536E+01 0.618E+01 0.176E+01   -.319E-03 -.192E-02 -.115E-02
   -.201E+02 -.666E+02 -.196E+03   0.228E+02 0.724E+02 0.202E+03   -.263E+01 -.581E+01 -.549E+01   0.476E-03 0.778E-03 0.501E-03
   0.185E+02 0.133E+02 -.226E+03   -.205E+02 -.153E+02 0.234E+03   0.201E+01 0.194E+01 -.792E+01   -.302E-03 0.238E-03 0.138E-02
   0.255E+02 -.756E+02 -.197E+03   -.253E+02 0.825E+02 0.202E+03   -.122E+00 -.691E+01 -.474E+01   0.228E-03 -.264E-03 -.394E-04
   -.274E+02 0.880E+02 -.135E+03   0.280E+02 -.934E+02 0.135E+03   -.619E+00 0.536E+01 -.588E+00   -.154E-02 -.400E-03 0.186E-02
   -.544E+02 0.217E+02 -.945E+02   0.577E+02 -.200E+02 0.905E+02   -.330E+01 -.184E+01 0.403E+01   0.631E-03 -.514E-03 0.209E-02
   -.246E+02 -.548E+02 -.153E+03   0.277E+02 0.581E+02 0.156E+03   -.309E+01 -.335E+01 -.283E+01   -.138E-02 -.313E-03 0.210E-03
   0.389E+02 0.220E+02 -.164E+03   -.411E+02 -.256E+02 0.167E+03   0.225E+01 0.360E+01 -.352E+01   -.126E-02 -.843E-03 0.685E-04
   0.595E+02 -.534E+02 -.120E+03   -.636E+02 0.564E+02 0.118E+03   0.407E+01 -.298E+01 0.219E+01   -.457E-04 -.899E-03 0.207E-02
   -.311E+02 -.582E+02 -.118E+03   0.333E+02 0.618E+02 0.115E+03   -.222E+01 -.369E+01 0.339E+01   0.164E-03 0.294E-03 0.242E-02
   -.748E+02 -.125E+02 -.150E+03   0.797E+02 0.145E+02 0.151E+03   -.490E+01 -.204E+01 -.106E+01   -.847E-03 0.108E-03 0.103E-02
   -.439E+01 0.459E+02 -.179E+03   0.277E+01 -.487E+02 0.184E+03   0.166E+01 0.279E+01 -.447E+01   -.155E-02 -.434E-03 0.112E-02
   -.155E+03 0.509E+02 0.335E+03   0.169E+03 -.623E+02 -.326E+03   -.141E+02 0.115E+02 -.942E+01   -.456E-02 0.302E-02 -.452E-03
   -.178E+03 0.438E+02 0.380E+03   0.206E+03 -.594E+02 -.390E+03   -.279E+02 0.163E+02 0.956E+01   -.554E-02 0.123E-02 -.881E-03
   -.189E+03 0.146E+03 -.947E+03   0.185E+03 -.185E+03 0.949E+03   0.431E+01 0.388E+02 -.120E+01   -.423E-02 -.290E-02 -.278E-01
   -.300E+02 0.214E+02 0.833E+02   0.529E+02 -.308E+02 -.113E+03   -.230E+02 0.937E+01 0.295E+02   0.203E-01 0.358E-03 -.111E-01
[...]
   -.498E+02 -.125E+02 0.212E+03   0.492E+02 0.113E+02 -.214E+03   0.458E+00 0.750E+00 0.887E+00   0.491E-03 -.185E-02 -.250E-02
   0.713E+02 -.429E+02 -.155E+03   -.657E+02 0.407E+02 0.152E+03   -.564E+01 0.218E+01 0.315E+01   -.188E-02 -.711E-02 -.326E-02
   -.876E+02 -.217E+02 0.376E+03   0.877E+02 0.196E+02 -.378E+03   -.167E+00 0.202E+01 0.173E+01   -.250E-02 0.956E-03 0.517E-03
   -.611E+02 0.100E+03 -.265E+03   0.610E+02 -.100E+03 0.267E+03   0.140E+00 0.164E+00 -.173E+01   0.385E-02 0.491E-02 -.472E-02
   -.111E+02 0.355E+00 0.289E+02   0.117E+02 -.358E+01 -.312E+02   -.991E+00 0.966E+01 0.184E+01   -.196E-02 -.564E-03 -.143E-02
   -.285E+02 0.848E+02 0.454E+03   0.285E+02 -.832E+02 -.456E+03   -.406E-01 -.173E+01 0.155E+01   -.171E-02 0.275E-03 0.389E-04
   0.925E+02 -.434E+01 -.278E+02   -.912E+02 0.654E+01 0.282E+02   -.133E+01 -.233E+01 -.629E+00   0.316E-02 -.912E-04 -.211E-02
   0.115E+03 0.158E+02 0.148E+03   -.109E+03 -.852E+01 -.152E+03   -.282E+02 -.231E+02 0.862E+01   0.533E-02 -.432E-03 -.454E-02
   -.241E+02 0.997E+02 -.403E+03   0.259E+02 -.981E+02 0.402E+03   -.183E+01 -.167E+01 0.528E+00   0.525E-02 0.594E-02 -.313E-02
   -.307E+02 0.305E+02 0.125E+03   0.308E+02 -.313E+02 -.125E+03   -.221E+00 0.805E+00 -.111E+01   -.245E-02 0.135E-02 -.895E-03
   0.564E+02 -.174E+02 -.367E+03   -.568E+02 0.181E+02 0.368E+03   0.410E+00 -.707E+00 -.851E+00   0.217E-02 -.104E-02 -.447E-02
   0.575E+02 -.619E+02 -.315E+03   -.584E+02 0.573E+02 0.316E+03   0.980E+00 0.462E+01 -.549E-01   0.346E-02 0.364E-03 -.125E-02
   0.105E+03 0.846E+02 -.201E+03   -.101E+03 -.812E+02 0.203E+03   -.372E+01 -.338E+01 -.254E+01   -.294E-02 -.316E-02 -.365E-02
   0.105E+03 0.129E+03 -.753E+03   -.102E+03 -.128E+03 0.756E+03   -.289E+01 -.722E+00 -.219E+01   -.218E-01 -.217E-01 0.367E-01
   0.318E+03 -.230E+03 -.115E+03   0.611E-12 0.000E+00 0.477E-11   -.318E+03 0.230E+03 0.116E+03   0.275E+00 0.109E-01 -.618E+00

 POSITION                                       TOTAL-FORCE (eV/Angst)
     13.65335      8.63563     19.22564        -0.001473     -0.005835      0.000761
     11.86023     11.25796     21.15432         0.006521     -0.017591     -0.008743
     12.68939     10.54702     20.08179        -0.000219     -0.010647      0.004421
     13.74635      9.50833     20.49361        -0.001795     -0.009829     -0.003017
     17.81615      1.88481     17.50176        -0.013719     -0.011146      0.024101
     21.68887      5.04983      9.57948         0.102083      0.073534     -0.024925
     18.57311      3.75615     10.03977         0.038582      0.114350      0.046450
     22.81522     17.09936      8.74523         0.109229      0.057693      0.030209
     14.64921     17.45932     10.08748         0.054990     -0.003512     -0.058580
     19.20987     18.03075      9.91976         0.121155      0.025317     -0.000082
     17.55831      2.55833     12.31361        -0.108738     -0.220639     -0.129440
     21.43078      4.51953     13.70969        -0.003829      0.009497     -0.001777
     13.66032      5.51363      8.22435        -0.100452     -0.127612      0.042380
     20.89524      6.06956     16.56610        -0.014726      0.011672     -0.005212
     14.01520      6.58435     16.46160        -0.020051      0.007889      0.012203
     13.90213     15.78524     15.53288         0.002224     -0.001079      0.002467
      0.79208      6.11879     17.54704         0.001127      0.005555      0.007324
     21.89589      7.60212     12.20778        -0.088552      0.134746      0.070137
     17.46807      9.60991     11.35790        -0.323294      0.163204     -0.038640
     18.79058      6.99499     17.13638         0.000419     -0.007167     -0.003823
     13.83846     10.30524     10.16285         0.096728     -0.182728      0.064890
     16.81947     11.70510     10.30871        -0.028650      0.244321     -0.019190
     19.69248      9.82944     11.28016        -0.104738     -0.098734      0.014170
      0.11154     10.94157      9.61829         0.111445     -0.007397     -0.029600
     19.39295     12.90878     12.57986         0.230310     -0.036746     -0.058260
     20.57434     10.84491     19.37858        -0.000840      0.006781      0.000271
     12.17365     17.85965     11.33680         0.013657      0.131950     -0.099889
      5.22293     17.76162     10.57067        -0.010475     -0.354136      0.120155
      5.06559      4.31016      8.58199         0.180004     -0.198956      0.070878
      3.68730      5.97650      7.50000         0.015099     -0.078142      0.118722
      7.99605      2.81941      8.89229         0.085909     -0.089491      0.065607
      5.21407      0.82921      8.67630         0.004033      0.018977      0.150595
     11.96593     14.98458     14.70126        -0.012448     -0.001849      0.002093
      8.80839      4.37401     17.41125        -0.012604      0.002244      0.002238
      5.70143      1.70306     16.09607         0.004093     -0.015639      0.001033
      7.38348      8.82752     11.89413         0.231609      0.095297     -0.171412
      9.57419      7.95042     10.90633         0.118375     -0.108971     -0.118937
      9.32939     14.37220     10.45190         0.060096      0.000705      0.126504
      5.71709     11.87720      7.91250        -0.104693     -0.016205      0.041076
      7.29827      7.58330      9.92689        -0.165291     -0.091063     -0.010566
      9.49268     10.58787      9.10862        -0.109998      0.039202     -0.004846
      3.26254      8.84269      9.46105        -0.024089     -0.203673     -0.121070
     13.88920     12.64839      9.47364        -0.127631     -0.094969      0.166096
     10.98006     15.61013     11.93160         0.310027      0.331166      0.161001
      2.86937      5.89836     16.48617        -0.012825     -0.017113     -0.005538
      1.75554     12.01347     17.38344         0.000640      0.005080      0.000620
      5.70669      7.05440     18.34290         0.002321      0.000050     -0.006206
      5.77965     14.78874     18.00583        -0.005024     -0.016397     -0.007720
     13.77639      7.54707     19.34231        -0.001783     -0.011955     -0.012371
     14.30382      9.00559     18.42052         0.001755     -0.003643     -0.004828
     12.50158     11.94645     21.73479         0.003625     -0.017472      0.007499
     11.41589     10.53469     21.85433        -0.007527     -0.015385     -0.005679
     11.04793     11.85388     20.71108        -0.000153     -0.005193     -0.001437
     13.14077     11.28125     19.39566         0.006338     -0.009089      0.000144
     14.74663      9.92647     20.70713         0.000705     -0.015830      0.002289
     13.40674      8.95111     21.38005        -0.006112     -0.016082     -0.008045
      8.63740     11.74900     11.80180        -0.219544      0.127915     -0.188918
      8.11940      9.13372     11.30145        -0.090168      0.610189      0.026980
     20.16055     10.26240     18.72489        -0.031497     -0.000919     -0.004772
      8.16193     17.38264     14.27398        -0.013800     -0.001332     -0.000487
[...]
      5.71814      6.71222     11.31648         0.025085     -0.128006     -0.105329
     15.41693      5.98005     12.10687        -0.140678     -0.471829     -0.851338
     10.79485      5.76833     14.21808        -0.006991      0.000219     -0.004295
      7.89661     10.69049     10.72869        -0.132148     -0.076283     -0.056426
     18.81965      8.63986     15.58986         0.006729     -0.003107      0.002677
      1.62029     16.28844     12.91761        -0.350096      6.433288     -0.525182
      4.96103      2.61769     10.04353        -0.072775     -0.040644      0.060981
      1.83153      8.95162     13.29887         0.018828     -0.131569     -0.298794
     13.05344     15.44546     12.76235       -22.324172    -15.849191      4.723230
     16.83319     10.59477     16.39014        -0.005186      0.006811      0.001727
      6.71066      3.80730     12.34244        -0.216880      0.021680     -0.762397
      2.05951     11.33134     15.26348         0.001967      0.002777     -0.002317
      8.26381      0.36496     15.55806         0.005891      0.011385     -0.024756
     11.40829      8.72963     15.43988        -0.010363     -0.006590      0.004014
     11.60618      9.18881     18.77019         0.009094      0.013286     -0.017632
    total drift:                                0.181194      0.147642      0.094642

  FREE ENERGIE OF THE ION-ELECTRON SYSTEM (eV)
  free  energy   TOTEN  =     -1887.20341061 eV

  energy  without entropy=    -1887.20341061  energy(sigma->0) =    -1887.20341061

 d Force = 0.1504794E-02[ 0.269E-03, 0.274E-02]  d Energy = 0.1435591E-02 0.692E-04
 d Force = 0.3095016E+00[ 0.304E+00, 0.315E+00]  d Ewald  = 0.3095049E+00-0.330E-05

 stress matrix after NEB project (eV)
    -32.72509      0.14775      0.28838
      0.14775    -33.32943     -0.16526
      0.28838     -0.16526    -25.43312
  FORCES: max atom, RMS     0.038608    0.011735
  FORCE total and by dimension    0.194949    0.036861
  Stress total and by dimension   53.187318   33.329433
 Quasi-Newton relaxation of ions (Broydens 2nd method)
  g(Force)  = 0.183E-02   g(Stress)= 0.000E+00

 retain information from N=  1 steps
 eigenvalues of (default step * inverse Hessian matrix)
  average eigenvalue of G=   0.2091
 eigenvalue spectrum of G is  0.2091

 reached required accuracy - stopping structural energy minimisation