 vasp.5.4.4.18Apr17-6-g9f103f2a35 (build Oct 20 2021 08:33:53) complex
 executed on             LinuxGNU date 2024.04.03  23:22:15

 INCAR:
 POTCAR:    PAW_PBE C 08Apr2002
 POTCAR:    PAW_PBE H 15Jun2001
 POTCAR:    PAW_PBE O 08Apr2002
 POTCAR:    PAW_PBE Si 05Jan2001
 POTCAR:    PAW_PBE W 08Apr2002
 POTCAR:    PAW_PBE C 08Apr2002
   VRHFIN =C: s2p2

   TITEL  = PAW_PBE C 08Apr2002
   POMASS =   12.011; ZVAL   =    4.000    mass and valenz
   ENMAX  =  400.000; ENMIN  =  300.000 eV

 POTCAR:    PAW_PBE H 15Jun2001
   VRHFIN =H: ultrasoft test

   TITEL  = PAW_PBE H 15Jun2001
   POMASS =    1.000; ZVAL   =    1.000    mass and valenz
   ENMAX  =  250.000; ENMIN  =  200.000 eV

 POTCAR:    PAW_PBE O 08Apr2002
   VRHFIN =O: s2p4

[...]

 POTCAR:    PAW_PBE Si 05Jan2001
   VRHFIN =Si: s2p2

   TITEL  = PAW_PBE Si 05Jan2001
   POMASS =   28.085; ZVAL   =    4.000    mass and valenz
   ENMAX  =  245.345; ENMIN  =  184.009 eV

 POTCAR:    PAW_PBE W 08Apr2002
   VRHFIN =W : 6s5d

   TITEL  = PAW_PBE W 08Apr2002
   POMASS =  183.850; ZVAL   =    6.000    mass and valenz
   ENMAX  =  223.057; ENMIN  =  167.293 eV

 Optimization of the real space projectors (new method)

 maximal supplied QI-value         = 25.13
 optimisation between [QCUT,QGAM] = [ 11.31, 22.87] = [ 35.82,146.48] Ry
 Optimized for a Real-space Cutoff    1.00 Angstroem

   l    n(q)    QCUT    max X(q) W(low)/X(q) W(high)/X(q)  e(spline)
   0      7    11.310   115.676    0.43E-03    0.13E-02    0.19E-06
   0      7    11.310    87.132    0.43E-03    0.13E-02    0.18E-06
   1      6    11.310     4.429    0.42E-03    0.74E-03    0.11E-06
   1      6    11.310     2.733    0.34E-03    0.55E-03    0.92E-07
 Optimization of the real space projectors (new method)

[...]

   l    n(q)    QCUT    max X(q) W(low)/X(q) W(high)/X(q)  e(spline)
   0      8    11.310   159.560    0.27E-03    0.30E-03    0.39E-07
   0      8    11.310   115.863    0.27E-03    0.30E-03    0.38E-07
   1      7    11.310    88.339    0.28E-03    0.28E-03    0.77E-07
   1      7    11.310    48.592    0.27E-03    0.27E-03    0.74E-07
 Optimization of the real space projectors (new method)

 maximal supplied QI-value         = 13.61
 optimisation between [QCUT,QGAM] = [ 11.43, 22.86] = [ 36.58,146.31] Ry
 Optimized for a Real-space Cutoff    1.56 Angstroem

   l    n(q)    QCUT    max X(q) W(low)/X(q) W(high)/X(q)  e(spline)
   2     10    11.429   130.855    0.22E-03    0.64E-03    0.11E-05
   2     10    11.429   114.007    0.22E-03    0.64E-03    0.11E-05
   0     11    11.429    84.709    0.39E-04    0.67E-04    0.23E-06
   0     11    11.429    49.163    0.35E-04    0.62E-04    0.21E-06
   1     10    11.429    15.765    0.84E-04    0.15E-03    0.24E-06
   1     10    11.429    10.638    0.58E-04    0.12E-03    0.19E-06

  PAW_PBE C 08Apr2002                   :
  PAW_PBE H 15Jun2001                   :
  PAW_PBE O 08Apr2002                   :
  PAW_PBE Si 05Jan2001                  :
  PAW_PBE W 08Apr2002                   :

 POSCAR:  C  H  O Si  W
  positions in direct lattice
  velocities in cartesian coordinates
 exchange correlation table for  LEXCH =        9
   RHO(1)=    0.500       N(1)  =     2000
   RHO(2)=  100.500       N(2)  =     4000

 VTST: version 3.2, (02/03/18)

 CHAIN: initializing optimizer

 OPT: Using Conjugate-Gradient optimizer
 OPT: CG, Init
 OPT: CG, FDSTEP      0.005000
 OPT: CG, MAXMOVE      0.200000

 CHAIN: Read ICHAIN            2

 POSCAR:  C  H  O Si  W
  positions in direct lattice
  velocities in cartesian coordinates
 CHAIN: Running the Dimer method

 Dimer: -----------------
 Dimer: Input Parameters
 Dimer:   Seed      0
 Dimer: RotMax      4
 Dimer:     dR      0.005000
 Dimer:  FNMax      1.000000
 Dimer:  FNMin      0.010000
 Dimer: -----------------

 ion  position               nearest neighbor table
   1  0.564  0.439  0.776-  50 1.09   2 1.46   3 1.50
   2  0.542  0.494  0.741-  49 1.18   1 1.46   4 1.55 276 2.05
   3  0.546  0.359  0.776-  52 1.10  51 1.10  53 1.11   1 1.50
   4  0.561  0.574  0.753-  56 1.09  54 1.10  55 1.10   2 1.55
   5  0.761  0.103  0.651- 131 0.97
   6  0.926  0.279  0.356-  79 0.98
   7  0.793  0.207  0.373- 114 0.97
   8  0.975  0.944  0.325- 123 0.97
   9  0.626  0.963  0.375- 125 0.98
  10  0.821  0.995  0.369- 143 0.97
  11  0.750  0.141  0.458- 181 0.98
  12  0.915  0.249  0.509- 186 0.97
  13  0.583  0.304  0.306- 191 0.97
  14  0.891  0.335  0.616-  97 0.98
  15  0.584  0.361  0.613- 142 0.98
  16  0.593  0.871  0.578- 184 0.99
  17  0.034  0.338  0.652- 190 0.97
  18  0.935  0.420  0.454- 179 0.98
  19  0.746  0.530  0.422-  93 1.00
  20  0.798  0.383  0.635- 171 0.97
  21  0.591  0.569  0.378- 105 0.99
  22  0.718  0.646  0.383- 128 0.99
  23  0.841  0.542  0.420- 134 0.98
  24  0.005  0.604  0.358- 139 0.97
  25  0.828  0.712  0.468- 180 0.99
  26  0.878  0.599  0.721-  59 0.97
  27  0.520  0.986  0.422- 141 0.99
  28  0.223  0.980  0.393- 182 1.00
  29  0.216  0.238  0.319- 197 0.99
  30  0.158  0.330  0.279- 188 0.97
  31  0.342  0.156  0.331- 189 0.98
  32  0.223  0.046  0.323- 196 0.97
  33  0.512  0.824  0.547- 199 0.97
  34  0.385  0.246  0.648-  84 0.97
  35  0.244  0.093  0.599- 135 0.98
  36  0.315  0.487  0.442-  58 0.99
  37  0.409  0.439  0.406- 147 0.98
  38  0.398  0.793  0.389- 185 0.97
  39  0.244  0.655  0.294- 193 0.97
  40  0.312  0.418  0.369- 194 0.98
  41  0.405  0.584  0.339- 195 0.97
  42  0.139  0.488  0.352- 187 0.98
  43  0.593  0.698  0.352-  88 0.97
  44  0.469  0.861  0.444- 198 0.99
  45  0.122  0.323  0.612- 107 0.97
  46  0.074  0.665  0.646- 138 0.97
  47  0.245  0.383  0.682- 183 0.97
  48  0.245  0.815  0.669- 192 0.97
  49  0.578  0.461  0.720-   2 1.18
  50  0.597  0.458  0.802-   1 1.09
  51  0.550  0.338  0.814-   3 1.10
  52  0.502  0.353  0.763-   3 1.10
  53  0.574  0.324  0.753-   3 1.11
  54  0.533  0.596  0.783-   4 1.10
  55  0.606  0.574  0.768-   4 1.10
  56  0.560  0.611  0.722-   4 1.09
  57  0.369  0.648  0.439- 230 1.66 265 1.68
  58  0.347  0.504  0.420-  36 0.99 265 1.67
  59  0.861  0.566  0.697-  26 0.97 236 1.64
  60  0.349  0.958  0.531- 241 1.68 274 1.70
[...]
 218  0.214  0.476  0.510- 178 1.61 177 1.63 174 1.66 137 1.66 229 3.10 262 3.14
 219  0.915  0.756  0.496- 102 1.65 180 1.65  86 1.66  91 1.66 232 2.99 240 3.03
 220  0.521  0.110  0.426- 113 1.64  64 1.65 141 1.66 121 1.67 251 3.08 234 3.12
 221  0.419  0.169  0.589-  84 1.64 201 1.66 101 1.68 161 1.69 274 3.14 261 3.14
 222  0.083  0.139  0.407-  63 1.64 144 1.65  89 1.65 157 1.66 215 3.11 214 3.13 268 3.14
 223  0.702  0.045  0.487-  96 1.64 165 1.65  62 1.65 181 1.66 234 3.09 224 3.10 258 3.15
 224  0.665  0.898  0.437-  95 1.53 165 1.66 125 1.66 156 1.67 270 2.83 257 3.06 223 3.10
 225  0.650  0.504  0.430- 105 1.65 163 1.65  93 1.67  99 1.68 233 3.07
 226  0.198  0.912  0.464- 136 1.50 182 1.64 159 1.66 115 1.67 244 3.01 241 3.06 267 3.07
 227  0.214  0.366  0.604-  83 1.63 178 1.63 107 1.64 183 1.64
 228  0.673  0.814  0.595- 184 1.62 116 1.64  98 1.68 206 1.71 255 2.90
 229  0.217  0.641  0.538- 176 1.63 169 1.63 202 1.65 137 1.65 244 3.09 218 3.10 273 3.12
 230  0.369  0.735  0.459- 104 1.65  73 1.65  57 1.66 185 1.68
 231  0.797  0.888  0.596- 140 1.66  98 1.66 109 1.67 205 1.68 240 2.86 232 3.00 258 3.15
 232  0.880  0.912  0.512-  72 1.60  91 1.62 109 1.65 117 1.65 219 2.99 231 3.00 256 3.05 247 3.13

 233  0.576  0.574  0.512-  99 1.58 166 1.63 100 1.63 133 1.64 243 3.00 225 3.07 275 3.15
 234  0.590  0.116  0.525-  62 1.60 121 1.61 158 1.62 148 1.65 261 2.84 223 3.09 245 3.11 220 3.12

[...]

 272  0.287  0.210  0.459- 173 1.63 122 1.63  67 1.66 152 1.67 250 3.03 268 3.12
 273  0.088  0.626  0.568- 162 1.63 138 1.64 108 1.64 169 1.65 269 3.10 229 3.12 249 3.15
 274  0.354  0.018  0.578- 161 1.63  69 1.66 208 1.69  60 1.70 241 2.38 260 2.74 221 3.14
 275  0.489  0.479  0.574- 133 1.64  77 1.66 127 1.68  85 1.69 252 3.01 233 3.15 276 3.15
 276  0.477  0.494  0.690- 210 1.73 124 1.96  77 2.03   2 2.05 252 3.02 275 3.15

  LATTYP: Found a simple orthorhombic cell.
 ALAT       =    18.1212369514
 B/A-ratio  =     1.2919258579
 C/A-ratio  =     1.4835282260

  Lattice vectors:

 A1 = (   0.0000000000, -18.1212369514,   0.0000000000)
 A2 = ( -23.4112945954,   0.0000000000,   0.0000000000)
 A3 = (   0.0000000000,   0.0000000000, -26.8833665073)

Analysis of symmetry for initial positions (statically):
 Subroutine PRICEL returns:
 Original cell was already a primitive cell.

 Routine SETGRP: Setting up the symmetry group for a
 simple orthorhombic supercell.

 Subroutine GETGRP returns: Found  1 space group operations
 (whereof  1 operations were pure point group operations)
 out of a pool of  8 trial point group operations.

The static configuration has the point symmetry C_1 .

Analysis of symmetry for dynamics (positions and initial velocities):
 Subroutine PRICEL returns:
 Original cell was already a primitive cell.

[...]

The dynamic configuration has the point symmetry C_1 .

Analysis of constrained symmetry for selective dynamics:
 Subroutine PRICEL returns:
 Original cell was already a primitive cell.

 Routine SETGRP: Setting up the symmetry group for a
 simple orthorhombic supercell.

 Subroutine GETGRP returns: Found  1 space group operations
 (whereof  1 operations were pure point group operations)
 out of a pool of  8 trial point group operations.

The constrained configuration has the point symmetry C_1 .

 Subroutine INISYM returns: Found  1 space group operations
 (whereof  1 operations are pure point group operations),
 and found     1 'primitive' translations

 KPOINTS: KPOINTS created by Atomic Simulation Env

Automatic generation of k-mesh.
Space group operators:
 irot       det(A)        alpha          n_x          n_y          n_z        tau_x        tau_y        tau_z
    1     1.000000     0.000001     1.000000     0.000000     0.000000     0.000000     0.000000     0.000000

 Subroutine IBZKPT returns following result:

 Found      5 irreducible k-points:

 Following reciprocal coordinates:
            Coordinates               Weight
  0.000000  0.000000  0.000000      1.000000
  0.333333  0.000000  0.000000      2.000000
  0.000000  0.333333  0.000000      2.000000
  0.333333  0.333333  0.000000      2.000000
 -0.333333  0.333333  0.000000      2.000000

 Following cartesian coordinates:
            Coordinates               Weight
  0.000000  0.000000  0.000000      1.000000
  0.014238  0.000000  0.000000      2.000000
  0.000000  0.018395  0.000000      2.000000
  0.014238  0.018395  0.000000      2.000000
 -0.014238  0.018395  0.000000      2.000000

 SYSTEM =  unknown system
 POSCAR =   C  H  O Si  W

 Startparameter for this run:
   NWRITE =      2    write-flag & timer
   PREC   = normal    normal or accurate (medium, high low for compatibility)
   ISTART =      0    job   : 0-new  1-cont  2-samecut
   ICHARG =      2    charge: 1-file 2-atom 10-const
   ISPIN  =      1    spin polarized calculation?
   LNONCOLLINEAR =      F non collinear calculations
   LSORBIT =      F    spin-orbit coupling
   INIWAV =      1    electr: 0-lowe 1-rand  2-diag
   LASPH  =      T    aspherical Exc in radial PAW
[...]
   0.314E+03 -.226E+03 -.123E+03   0.256E-11 -.114E-11 0.375E-11   -.314E+03 0.226E+03 0.123E+03   0.616E-04 0.346E-04 -.272E-03

 POSITION                                       TOTAL-FORCE (eV/Angst)
     13.20826      7.95670     20.85190        -0.041030     -0.017612     -0.007682
     12.68794      8.95736     19.92683         0.030025     -0.027118     -0.008624
     12.79015      6.51438     20.86844        -0.010438     -0.027319     -0.009203
     13.14525     10.39944     20.25469         0.041692     -0.021145     -0.000913
     17.81090      1.86381     17.50557         0.002398      0.002395     -0.001627
     21.68887      5.04983      9.57948         0.100989      0.072700     -0.025488
     18.57311      3.75615     10.03977         0.036545      0.113646      0.046541
     22.81522     17.09936      8.74523         0.108199      0.056288      0.030060
     14.64921     17.45932     10.08748         0.053268     -0.004861     -0.057598
     19.20987     18.03075      9.91976         0.119397      0.023997     -0.000187
     17.55831      2.55833     12.31361        -0.111716     -0.221614     -0.131597
     21.43156      4.52059     13.68641         0.000078     -0.000165     -0.000477
     13.66032      5.51363      8.22435        -0.102249     -0.128809      0.045246
     20.86511      6.06225     16.55928         0.002608     -0.001583     -0.001500
     13.67284      6.55046     16.48369         0.005994     -0.014171      0.000117
     13.89279     15.78564     15.53995        -0.000876      0.000740      0.000822
      0.79976      6.12903     17.51856        -0.002214     -0.010098     -0.007402
     21.89589      7.60212     12.20778        -0.089918      0.131006      0.071444
     17.46807      9.60991     11.35790        -0.323837      0.160135     -0.036803
     18.67681      6.93167     17.06457        -0.003117     -0.000561      0.002459
     13.83846     10.30524     10.16285         0.095812     -0.186383      0.065531
     16.81947     11.70510     10.30871        -0.030652      0.239313     -0.017812
     19.69248      9.82944     11.28016        -0.107927     -0.102897      0.012318
      0.11154     10.94157      9.61829         0.110079     -0.009207     -0.029720
     19.39295     12.90878     12.57986         0.229325     -0.039421     -0.052959
     20.55286     10.85148     19.37591         0.003357     -0.004389      0.003539
     12.17365     17.85965     11.33680         0.012949      0.130850     -0.098583
      5.22293     17.76162     10.57067        -0.011522     -0.353885      0.119506
      5.06559      4.31016      8.58199         0.179360     -0.200800      0.071419
      3.68730      5.97650      7.50000         0.013956     -0.078383      0.115116
      7.99605      2.81941      8.89229         0.085079     -0.090420      0.066942
      5.21407      0.82921      8.67630         0.002731      0.017830      0.151008
     11.97723     14.93771     14.69812         0.002462     -0.000403      0.000158
      9.01376      4.45174     17.41862         0.004754     -0.002635     -0.000150
      5.71613      1.68381     16.09101        -0.003123     -0.001598     -0.001036
      7.38348      8.82752     11.89413         0.233986      0.095837     -0.169967
      9.57419      7.95042     10.90633         0.122885     -0.111468     -0.115381
      9.32939     14.37220     10.45190         0.056268      0.001038      0.129258
      5.71709     11.87720      7.91250        -0.105418     -0.017726      0.041378
      7.29827      7.58330      9.92689        -0.164765     -0.092110     -0.009157
      9.49268     10.58787      9.10862        -0.111687      0.037064     -0.002573
      3.26254      8.84269      9.46105        -0.025040     -0.205855     -0.120793
     13.88920     12.64839      9.47364        -0.129498     -0.096897      0.165899
     10.98006     15.61013     11.93160         0.310006      0.330701      0.160956
      2.85821      5.84682     16.44142         0.000476      0.000932     -0.001150
      1.72084     12.04365     17.36396         0.000003     -0.000436      0.002901
      5.73452      6.94003     18.33731         0.001978     -0.001746      0.001470
      5.73277     14.77267     17.98217        -0.001220     -0.000399     -0.000198
     13.53775      8.35363     19.36449         0.009065      0.007032      0.000722
     13.96847      8.30221     21.55934        -0.020794     -0.026300      0.028047
     12.86561      6.12048     21.89431        -0.009663     -0.007447     -0.008497
     11.75665      6.39287     20.51849        -0.002511     -0.028775      0.004421
     13.43907      5.87607     20.23873         0.009504     -0.022584      0.006672
     12.48123     10.79549     21.03811         0.019575     -0.015216     -0.009882
     14.17717     10.39619     20.64513         0.001081      0.002840     -0.049775
     13.10231     11.07872     19.39696         0.005301     -0.007671     -0.038725
      8.63740     11.74900     11.80180        -0.235353      0.117770     -0.212189
      8.11940      9.13372     11.30145        -0.098994      0.612022      0.023486
     20.14612     10.25701     18.72821        -0.005150      0.015482      0.011333
      8.16760     17.35177     14.26190         0.004649      0.008080      0.003208
[...]
      5.71814      6.71222     11.31648         0.027243     -0.129406     -0.106555
     15.41693      5.98005     12.10687        -0.172577     -0.465604     -0.805253
     10.79031      5.75867     14.21423        -0.006388     -0.006750      0.000488
      7.89661     10.69049     10.72869        -0.119029     -0.082096     -0.047120
     18.79683      8.63582     15.58290         0.005397     -0.001755     -0.006857
      1.62029     16.28844     12.91761        -0.326022      6.440761     -0.551771
      4.96103      2.61769     10.04353        -0.069348     -0.038049      0.070317
      1.83153      8.95162     13.29887         0.041470     -0.139588     -0.312697
     13.05344     15.44546     12.76235       -22.295558    -15.851178      4.709419
     16.81079     10.59865     16.38751        -0.005082     -0.005794      0.003040
      6.71066      3.80730     12.34244        -0.224244     -0.003022     -0.741181
      2.06579     11.33486     15.26010        -0.004640      0.007359      0.000357
      8.28352      0.33281     15.54587        -0.008251     -0.017992      0.003771
     11.45256      8.68044     15.42478         0.000059     -0.002194     -0.012201
     11.16434      8.95569     18.55013         0.001104     -0.005513     -0.019229
    total drift:                                0.541953      0.497662      0.060618

  FREE ENERGIE OF THE ION-ELECTRON SYSTEM (eV)
  free  energy   TOTEN  =     -1884.90175042 eV

  energy  without entropy=    -1884.90166331  energy(sigma->0) =    -1884.90170686

 Dimer: Init Mode:
 Dimer: MODECAR found
 Dimer: initial mode
   -1.4183959840E-01   -1.6676679385E-02    3.6941059491E-01
    3.2996881001E-01   -1.6304375348E-01    5.5587815326E-02
   -6.2199351806E-03   -1.1188936233E-02    6.9583436350E-02
    4.7630926651E-02   -1.7524035581E-02    3.8079002003E-02
    6.3302202179E-04    1.5971101633E-03   -1.3080097124E-03
    0.0000000000E+00    0.0000000000E+00    0.0000000000E+00
    0.0000000000E+00    0.0000000000E+00    0.0000000000E+00
    0.0000000000E+00    0.0000000000E+00    0.0000000000E+00
    0.0000000000E+00    0.0000000000E+00    0.0000000000E+00
    0.0000000000E+00    0.0000000000E+00    0.0000000000E+00
    0.0000000000E+00    0.0000000000E+00    0.0000000000E+00
   -8.5277720943E-07   -6.8502720697E-05    4.9392012050E-04
    0.0000000000E+00    0.0000000000E+00    0.0000000000E+00
   -8.2462353085E-04    5.5740313683E-04    4.3789191826E-04
    6.2244394023E-03   -1.1635235014E-02   -1.6742888833E-03
    2.2442567209E-04    2.1196600127E-03   -3.4413453559E-04
   -6.7360579940E-04    8.7552826797E-04    1.1283395720E-03
    0.0000000000E+00    0.0000000000E+00    0.0000000000E+00
    0.0000000000E+00    0.0000000000E+00    0.0000000000E+00
   -2.4437293504E-04    3.4912377255E-04    1.1604576424E-03
    0.0000000000E+00    0.0000000000E+00    0.0000000000E+00
    0.0000000000E+00    0.0000000000E+00    0.0000000000E+00
    0.0000000000E+00    0.0000000000E+00    0.0000000000E+00
    0.0000000000E+00    0.0000000000E+00    0.0000000000E+00
    0.0000000000E+00    0.0000000000E+00    0.0000000000E+00
   -1.5908745448E-03   -8.6813988507E-04    6.3265892803E-04
    0.0000000000E+00    0.0000000000E+00    0.0000000000E+00
    0.0000000000E+00    0.0000000000E+00    0.0000000000E+00
    0.0000000000E+00    0.0000000000E+00    0.0000000000E+00
    0.0000000000E+00    0.0000000000E+00    0.0000000000E+00
    0.0000000000E+00    0.0000000000E+00    0.0000000000E+00
    0.0000000000E+00    0.0000000000E+00    0.0000000000E+00
    5.0012597656E-04    1.8791246023E-03    4.1293010235E-04
   -3.8569077744E-03    9.0987867488E-03   -1.0725612222E-03
   -1.5804717865E-03    1.1537489256E-03    9.7587585268E-04
    0.0000000000E+00    0.0000000000E+00    0.0000000000E+00
    0.0000000000E+00    0.0000000000E+00    0.0000000000E+00
    0.0000000000E+00    0.0000000000E+00    0.0000000000E+00
    0.0000000000E+00    0.0000000000E+00    0.0000000000E+00
    0.0000000000E+00    0.0000000000E+00    0.0000000000E+00
    0.0000000000E+00    0.0000000000E+00    0.0000000000E+00
    0.0000000000E+00    0.0000000000E+00    0.0000000000E+00
    0.0000000000E+00    0.0000000000E+00    0.0000000000E+00
    0.0000000000E+00    0.0000000000E+00    0.0000000000E+00
   -3.4839493354E-03   -7.2872167474E-03   -2.1810048601E-03
   -8.4582254882E-04    4.7733794280E-04    8.5054657665E-04
   -9.3558820697E-04    1.1095580907E-03   -6.3590988750E-04
    3.3126877428E-03    4.0268086862E-03   -1.2687528289E-03
   -2.9085290543E-01    3.1341491959E-01   -6.4497880999E-01
    1.5240970090E-03   -4.4974312079E-02    1.7602235917E-01
   -7.9614214134E-03   -9.9596556834E-02    1.8375304325E-02
    7.3798692583E-03   -1.5786112252E-02    1.8100908857E-02
    2.4054660704E-02    5.1422018752E-02   -2.6564054007E-03
   -7.6507959353E-03   -4.0008046194E-02   -9.7796321970E-03
    3.4097832259E-02    5.1011708051E-02    4.0417823561E-02
    1.2874907445E-02   -5.2703858395E-02    5.7837318388E-03
    0.0000000000E+00    0.0000000000E+00    0.0000000000E+00
    0.0000000000E+00    0.0000000000E+00    0.0000000000E+00
   -4.0266264469E-03    8.1299584001E-04    5.1594975236E-04
   -1.2248924489E-02    2.7755600586E-02   -2.2461990458E-02
[...]
    0.0000000000E+00    0.0000000000E+00    0.0000000000E+00
    0.0000000000E+00    0.0000000000E+00    0.0000000000E+00
   -4.7829986708E-03   -1.8829601201E-03   -6.3651856833E-04
    0.0000000000E+00    0.0000000000E+00    0.0000000000E+00
   -1.0077081546E-03    5.1828760729E-05   -4.2606792752E-04
    0.0000000000E+00    0.0000000000E+00    0.0000000000E+00
    0.0000000000E+00    0.0000000000E+00    0.0000000000E+00
    0.0000000000E+00    0.0000000000E+00    0.0000000000E+00
    0.0000000000E+00    0.0000000000E+00    0.0000000000E+00
    2.1568058620E-03    1.1422094811E-03   -2.8829759658E-03
    0.0000000000E+00    0.0000000000E+00    0.0000000000E+00
   -2.7306768511E-04    9.8663224092E-04    1.6685997127E-04
   -5.2147876590E-03    3.7413468611E-03   -7.8317456599E-03
   -2.4226081494E-02    6.8372687157E-03   -3.4136773190E-02
    9.5126726038E-02   -3.9023890780E-02   -3.4834686440E-02
 Dimer: -----------------
 Dimer: Itr    1 Rot    0

 Dimer: Central Point
 Dimer: F0      0.175948

 Dimer: Projection
 Dimer: N*F0   2.7139719106268469E-002
 Dimer: F0sq   3.0957791911896942E-002
 Dimer: Feffsq    7.3656435316715491E-004
 Dimer: Feff
    3.8494868587E-03    4.5260039413E-04   -1.0025699781E-02
   -8.9552608175E-03    4.4249616715E-03   -1.5086376937E-03
    1.6880729366E-04    3.0366458646E-04   -1.8884749170E-03
   -1.2926899701E-03    4.7559740328E-04   -1.0334534182E-03
   -1.7180039859E-05   -4.3345121214E-05    3.5499016183E-05
   -0.0000000000E+00   -0.0000000000E+00   -0.0000000000E+00
   -0.0000000000E+00   -0.0000000000E+00   -0.0000000000E+00
   -0.0000000000E+00   -0.0000000000E+00   -0.0000000000E+00
   -0.0000000000E+00   -0.0000000000E+00   -0.0000000000E+00
   -0.0000000000E+00   -0.0000000000E+00   -0.0000000000E+00
   -0.0000000000E+00   -0.0000000000E+00   -0.0000000000E+00
    2.3144133924E-08    1.8591445977E-06   -1.3404853331E-05
   -0.0000000000E+00   -0.0000000000E+00   -0.0000000000E+00
    2.2380050996E-05   -1.5127764562E-05   -1.1884263660E-05
   -1.6892953697E-04    3.1577701001E-04    4.5439729995E-05
   -6.0908497007E-06   -5.7526977345E-05    9.3397146307E-06
    1.8281472184E-05   -2.3761591262E-05   -3.0622819041E-05
   -0.0000000000E+00   -0.0000000000E+00   -0.0000000000E+00
   -0.0000000000E+00   -0.0000000000E+00   -0.0000000000E+00
    6.6322128141E-06   -9.4751211203E-06   -3.1494494449E-05
   -0.0000000000E+00   -0.0000000000E+00   -0.0000000000E+00
   -0.0000000000E+00   -0.0000000000E+00   -0.0000000000E+00
   -0.0000000000E+00   -0.0000000000E+00   -0.0000000000E+00
   -0.0000000000E+00   -0.0000000000E+00   -0.0000000000E+00
   -0.0000000000E+00   -0.0000000000E+00   -0.0000000000E+00
    4.3175888279E-05    2.3561072626E-05   -1.7170185597E-05
   -0.0000000000E+00   -0.0000000000E+00   -0.0000000000E+00
   -0.0000000000E+00   -0.0000000000E+00   -0.0000000000E+00
   -0.0000000000E+00   -0.0000000000E+00   -0.0000000000E+00
   -0.0000000000E+00   -0.0000000000E+00   -0.0000000000E+00
   -0.0000000000E+00   -0.0000000000E+00   -0.0000000000E+00
   -0.0000000000E+00   -0.0000000000E+00   -0.0000000000E+00
   -1.3573278522E-05   -5.0998913872E-05   -1.1206806988E-05
    1.0467539362E-04   -2.4693851657E-04    2.9109010295E-05
    4.2893560341E-05   -3.1312421760E-05   -2.6484996524E-05
   -0.0000000000E+00   -0.0000000000E+00   -0.0000000000E+00
   -0.0000000000E+00   -0.0000000000E+00   -0.0000000000E+00
   -0.0000000000E+00   -0.0000000000E+00   -0.0000000000E+00
   -0.0000000000E+00   -0.0000000000E+00   -0.0000000000E+00
   -0.0000000000E+00   -0.0000000000E+00   -0.0000000000E+00
   -0.0000000000E+00   -0.0000000000E+00   -0.0000000000E+00
   -0.0000000000E+00   -0.0000000000E+00   -0.0000000000E+00
   -0.0000000000E+00   -0.0000000000E+00   -0.0000000000E+00
   -0.0000000000E+00   -0.0000000000E+00   -0.0000000000E+00
    9.4553406343E-05    1.9777301559E-04    5.9191859272E-05
    2.2955386389E-05   -1.2954817686E-05   -2.3083595177E-05
    2.5391601136E-05   -3.0113094914E-05    1.7258415724E-05
   -8.9905414826E-05   -1.0928645664E-04    3.4433595392E-05
    7.8936661546E-03   -8.5059928814E-03    1.7504543733E-02
   -4.1363564715E-05    1.2205901968E-03   -4.7771973843E-03
    2.1607074085E-04    2.7030225764E-03   -4.9870059787E-04
   -2.0028757871E-04    4.2843065230E-04   -4.9125358195E-04
   -6.5283673470E-04   -1.3955791448E-03    7.2094096407E-05
    2.0764045262E-04    1.0858071357E-03    2.6541647079E-04
   -9.2540558964E-04   -1.3844434276E-03   -1.0969283783E-03
   -3.4942137158E-04    1.4303679127E-03   -1.5696885749E-04
   -0.0000000000E+00   -0.0000000000E+00   -0.0000000000E+00
   -0.0000000000E+00   -0.0000000000E+00   -0.0000000000E+00
    1.0928151071E-04   -2.2064478732E-05   -1.4002731352E-05
    3.3243236998E-04   -7.5327920353E-04    6.0961211160E-04
[...]
   -0.0000000000E+00   -0.0000000000E+00   -0.0000000000E+00
   -0.0000000000E+00   -0.0000000000E+00   -0.0000000000E+00
    1.2980924041E-04    5.1103008748E-05    1.7274935150E-05
   -0.0000000000E+00   -0.0000000000E+00   -0.0000000000E+00
    2.7348916257E-05   -1.4066180078E-06    1.1563363873E-05
   -0.0000000000E+00   -0.0000000000E+00   -0.0000000000E+00
   -0.0000000000E+00   -0.0000000000E+00   -0.0000000000E+00
   -0.0000000000E+00   -0.0000000000E+00   -0.0000000000E+00
   -0.0000000000E+00   -0.0000000000E+00   -0.0000000000E+00
   -5.8535105261E-05   -3.0999244478E-05    7.8243157902E-05
   -0.0000000000E+00   -0.0000000000E+00   -0.0000000000E+00
    7.4109802709E-06   -2.6776921880E-05   -4.5285327503E-06
    1.4152787226E-04   -1.0153910289E-04    2.1255137732E-04
    6.5748904679E-04   -1.8556155240E-04    9.2646243557E-04
   -2.5817126242E-03    1.0590974342E-03    9.4540360513E-04

 stress matrix after NEB project (eV)
    -32.60060      0.13390      0.19115
      0.13390    -33.40547     -0.01353
      0.19115     -0.01353    -25.15963
  FORCES: max atom, RMS     0.049867    0.010591
  FORCE total and by dimension    0.175948    0.049775
  Stress total and by dimension   53.026791   33.405465
 OPT: skip step - force has converged

 reached required accuracy - stopping structural energy minimisation