 vasp.5.4.4.18Apr17-6-g9f103f2a35 (build Oct 20 2021 08:33:53) complex
 executed on             LinuxGNU date 2025.03.08  14:13:46

 INCAR:
 POTCAR:    PAW_PBE C 08Apr2002
 POTCAR:    PAW_PBE H 15Jun2001
 POTCAR:    PAW_PBE O 08Apr2002
 POTCAR:    PAW_PBE Si 05Jan2001
 POTCAR:    PAW_PBE W 08Apr2002
 POTCAR:    PAW_PBE C 08Apr2002
   VRHFIN =C: s2p2

   TITEL  = PAW_PBE C 08Apr2002
   POMASS =   12.011; ZVAL   =    4.000    mass and valenz
   ENMAX  =  400.000; ENMIN  =  300.000 eV

 POTCAR:    PAW_PBE H 15Jun2001
   VRHFIN =H: ultrasoft test

   TITEL  = PAW_PBE H 15Jun2001
   POMASS =    1.000; ZVAL   =    1.000    mass and valenz
   ENMAX  =  250.000; ENMIN  =  200.000 eV

 POTCAR:    PAW_PBE O 08Apr2002
   VRHFIN =O: s2p4

[...]

 POTCAR:    PAW_PBE Si 05Jan2001
   VRHFIN =Si: s2p2

   TITEL  = PAW_PBE Si 05Jan2001
   POMASS =   28.085; ZVAL   =    4.000    mass and valenz
   ENMAX  =  245.345; ENMIN  =  184.009 eV

 POTCAR:    PAW_PBE W 08Apr2002
   VRHFIN =W : 6s5d

   TITEL  = PAW_PBE W 08Apr2002
   POMASS =  183.850; ZVAL   =    6.000    mass and valenz
   ENMAX  =  223.057; ENMIN  =  167.293 eV

 Optimization of the real space projectors (new method)

 maximal supplied QI-value         = 25.13
 optimisation between [QCUT,QGAM] = [ 11.31, 22.87] = [ 35.82,146.48] Ry
 Optimized for a Real-space Cutoff    1.00 Angstroem

   l    n(q)    QCUT    max X(q) W(low)/X(q) W(high)/X(q)  e(spline)
   0      7    11.310   115.676    0.43E-03    0.13E-02    0.19E-06
   0      7    11.310    87.132    0.43E-03    0.13E-02    0.18E-06
   1      6    11.310     4.429    0.42E-03    0.74E-03    0.11E-06
   1      6    11.310     2.733    0.34E-03    0.55E-03    0.92E-07
 Optimization of the real space projectors (new method)

[...]

   l    n(q)    QCUT    max X(q) W(low)/X(q) W(high)/X(q)  e(spline)
   0      8    11.310   159.560    0.27E-03    0.30E-03    0.39E-07
   0      8    11.310   115.863    0.27E-03    0.30E-03    0.38E-07
   1      7    11.310    88.339    0.28E-03    0.28E-03    0.77E-07
   1      7    11.310    48.592    0.27E-03    0.27E-03    0.74E-07
 Optimization of the real space projectors (new method)

 maximal supplied QI-value         = 13.61
 optimisation between [QCUT,QGAM] = [ 11.43, 22.86] = [ 36.58,146.31] Ry
 Optimized for a Real-space Cutoff    1.56 Angstroem

   l    n(q)    QCUT    max X(q) W(low)/X(q) W(high)/X(q)  e(spline)
   2     10    11.429   130.855    0.22E-03    0.64E-03    0.11E-05
   2     10    11.429   114.007    0.22E-03    0.64E-03    0.11E-05
   0     11    11.429    84.709    0.39E-04    0.67E-04    0.23E-06
   0     11    11.429    49.163    0.35E-04    0.62E-04    0.21E-06
   1     10    11.429    15.765    0.84E-04    0.15E-03    0.24E-06
   1     10    11.429    10.638    0.58E-04    0.12E-03    0.19E-06

  PAW_PBE C 08Apr2002                   :
  PAW_PBE H 15Jun2001                   :
  PAW_PBE O 08Apr2002                   :
  PAW_PBE Si 05Jan2001                  :
  PAW_PBE W 08Apr2002                   :

 POSCAR: C  H  O  Si W
  positions in direct lattice
  velocities in cartesian coordinates
 exchange correlation table for  LEXCH =        9
   RHO(1)=    0.500       N(1)  =     2000
   RHO(2)=  100.500       N(2)  =     4000

 VTST: version 3.2, (02/03/18)

 CHAIN: initializing optimizer

 OPT: Using VASP QUASI-newton optimizer
 CHAIN: Read ICHAIN            0

 POSCAR: C  H  O  Si W
  positions in direct lattice
  velocities in cartesian coordinates

 ion  position               nearest neighbor table
   1  0.660  0.419  0.715-  50 1.09  49 1.09   4 1.34
   2  0.550  0.518  0.793-  52 1.10  51 1.10  53 1.10   3 1.50
   3  0.541  0.526  0.738-  54 1.11   2 1.50 276 1.90
   4  0.685  0.428  0.760-  56 1.09  55 1.09   1 1.34
   5  0.761  0.104  0.651- 131 0.97
   6  0.926  0.279  0.356-  79 0.98
   7  0.793  0.207  0.373- 114 0.97
   8  0.975  0.944  0.325- 123 0.97
   9  0.626  0.963  0.375- 125 0.98
  10  0.821  0.995  0.369- 143 0.97
  11  0.750  0.141  0.458- 181 0.98
  12  0.915  0.249  0.509- 186 0.97
  13  0.583  0.304  0.306- 191 0.97
  14  0.891  0.334  0.616-  97 0.98
  15  0.596  0.363  0.613- 142 0.97
  16  0.593  0.871  0.578- 184 0.99
  17  0.033  0.337  0.653- 190 0.97
  18  0.935  0.420  0.454- 179 0.98
  19  0.746  0.530  0.422-  93 1.00
  20  0.798  0.385  0.637- 171 0.97
  21  0.591  0.569  0.378- 105 0.99
  22  0.718  0.646  0.383- 128 0.99
  23  0.841  0.542  0.420- 134 0.98
  24  0.005  0.604  0.358- 139 0.97
  25  0.828  0.712  0.468- 180 0.99
  26  0.877  0.599  0.721-  59 0.97
  27  0.520  0.986  0.422- 141 0.99
  28  0.223  0.980  0.393- 182 1.00
  29  0.216  0.238  0.319- 197 0.99
  30  0.158  0.330  0.279- 188 0.97
  31  0.342  0.156  0.331- 189 0.98
  32  0.223  0.046  0.323- 196 0.97
  33  0.511  0.827  0.547- 199 0.97
  34  0.369  0.234  0.648-  84 0.97
  35  0.243  0.093  0.599- 135 0.98
  36  0.315  0.487  0.442-  58 0.99
  37  0.409  0.439  0.406- 147 0.98
  38  0.398  0.793  0.389- 185 0.97
  39  0.244  0.655  0.294- 193 0.97
  40  0.312  0.418  0.369- 194 0.98
  41  0.405  0.584  0.339- 195 0.97
  42  0.139  0.488  0.352- 187 0.98
  43  0.593  0.698  0.352-  88 0.97
  44  0.469  0.861  0.444- 198 0.99
  45  0.123  0.324  0.614- 107 0.97
  46  0.074  0.664  0.646- 138 0.97
  47  0.245  0.389  0.682- 183 0.97
  48  0.248  0.815  0.670- 192 0.97
  49  0.638  0.368  0.705-   1 1.09
  50  0.661  0.463  0.687-   1 1.09
  51  0.591  0.490  0.801-   2 1.10
  52  0.515  0.487  0.810-   2 1.10
  53  0.553  0.573  0.810-   2 1.10
  54  0.575  0.556  0.717-   3 1.11
  55  0.706  0.479  0.770-   4 1.09
  56  0.683  0.385  0.788-   4 1.09
  57  0.369  0.648  0.439- 230 1.66 265 1.68
  58  0.347  0.504  0.420-  36 0.99 265 1.67
  59  0.861  0.566  0.697-  26 0.97 236 1.64
  60  0.349  0.960  0.531- 241 1.68 274 1.70
[...]
 218  0.214  0.476  0.510- 178 1.61 177 1.63 174 1.66 137 1.66 229 3.11 262 3.14
 219  0.915  0.756  0.496- 102 1.65 180 1.65  86 1.66  91 1.66 232 2.99 240 3.03
 220  0.521  0.110  0.426- 113 1.64  64 1.65 141 1.66 121 1.67 251 3.08 234 3.12
 221  0.418  0.171  0.590-  84 1.64 201 1.65 101 1.68 161 1.69 274 3.13 261 3.13
 222  0.083  0.139  0.407-  63 1.64 144 1.65  89 1.65 157 1.66 215 3.11 214 3.13 268 3.14
 223  0.702  0.045  0.487-  96 1.64 165 1.65  62 1.65 181 1.66 234 3.09 224 3.10 258 3.15
 224  0.665  0.898  0.437-  95 1.53 165 1.66 125 1.66 156 1.67 270 2.83 257 3.06 223 3.10
 225  0.650  0.504  0.430- 105 1.65 163 1.65  93 1.67  99 1.68 233 3.08
 226  0.198  0.912  0.464- 136 1.50 182 1.64 159 1.66 115 1.67 244 3.01 241 3.07 267 3.07
 227  0.215  0.367  0.604-  83 1.63 178 1.63 107 1.64 183 1.64
 228  0.674  0.814  0.595- 184 1.62 116 1.64  98 1.68 206 1.71 255 2.90
 229  0.217  0.642  0.539- 176 1.63 169 1.63 202 1.65 137 1.65 244 3.09 218 3.11 273 3.12
 230  0.369  0.735  0.459- 104 1.65  73 1.65  57 1.66 185 1.68
 231  0.798  0.889  0.596- 140 1.66  98 1.66 109 1.67 205 1.68 240 2.86 232 2.99 258 3.14
 232  0.880  0.912  0.512-  72 1.60  91 1.62 109 1.65 117 1.65 219 2.99 231 2.99 256 3.05 247 3.13

 233  0.577  0.575  0.512-  99 1.58 166 1.63 100 1.64 133 1.65 243 3.00 225 3.08 217 3.13
 234  0.590  0.116  0.525-  62 1.60 121 1.61 158 1.62 148 1.65 261 2.85 223 3.09 245 3.11 220 3.12

[...]

 272  0.287  0.210  0.459- 173 1.63 122 1.63  67 1.66 152 1.67 250 3.03 268 3.12
 273  0.088  0.626  0.568- 162 1.63 138 1.64 108 1.64 169 1.65 269 3.10 229 3.12 249 3.15
 274  0.353  0.022  0.578- 161 1.63  69 1.66 208 1.69  60 1.70 241 2.38 260 2.73 221 3.13
 275  0.487  0.482  0.574- 133 1.64  77 1.67 127 1.68  85 1.68 252 2.98 276 3.26
 276  0.479  0.505  0.694- 210 1.72   3 1.90 124 1.95  77 1.97 252 3.02 275 3.26

  LATTYP: Found a simple orthorhombic cell.
 ALAT       =    18.1212369514
 B/A-ratio  =     1.2919258579
 C/A-ratio  =     1.4835282260

  Lattice vectors:

 A1 = (   0.0000000000, -18.1212369514,   0.0000000000)
 A2 = ( -23.4112945954,   0.0000000000,   0.0000000000)
 A3 = (   0.0000000000,   0.0000000000, -26.8833665073)

Analysis of symmetry for initial positions (statically):
 Subroutine PRICEL returns:
 Original cell was already a primitive cell.

 Routine SETGRP: Setting up the symmetry group for a
 simple orthorhombic supercell.

 Subroutine GETGRP returns: Found  1 space group operations
 (whereof  1 operations were pure point group operations)
 out of a pool of  8 trial point group operations.

The static configuration has the point symmetry C_1 .

Analysis of symmetry for dynamics (positions and initial velocities):
 Subroutine PRICEL returns:
 Original cell was already a primitive cell.

[...]

The dynamic configuration has the point symmetry C_1 .

Analysis of constrained symmetry for selective dynamics:
 Subroutine PRICEL returns:
 Original cell was already a primitive cell.

 Routine SETGRP: Setting up the symmetry group for a
 simple orthorhombic supercell.

 Subroutine GETGRP returns: Found  1 space group operations
 (whereof  1 operations were pure point group operations)
 out of a pool of  8 trial point group operations.

The constrained configuration has the point symmetry C_1 .

 Subroutine INISYM returns: Found  1 space group operations
 (whereof  1 operations are pure point group operations),
 and found     1 'primitive' translations

 KPOINTS: KPOINTS created by Atomic Simulation Env

Automatic generation of k-mesh.
Space group operators:
 irot       det(A)        alpha          n_x          n_y          n_z        tau_x        tau_y        tau_z
    1     1.000000     0.000000     1.000000     0.000000     0.000000     0.000000     0.000000     0.000000

 Subroutine IBZKPT returns following result:

 Found      5 irreducible k-points:

 Following reciprocal coordinates:
            Coordinates               Weight
  0.000000  0.000000  0.000000      1.000000
  0.333333  0.000000  0.000000      2.000000
  0.000000  0.333333  0.000000      2.000000
  0.333333  0.333333  0.000000      2.000000
 -0.333333  0.333333  0.000000      2.000000

 Following cartesian coordinates:
            Coordinates               Weight
  0.000000  0.000000  0.000000      1.000000
  0.014238  0.000000  0.000000      2.000000
  0.000000  0.018395  0.000000      2.000000
  0.014238  0.018395  0.000000      2.000000
 -0.014238  0.018395  0.000000      2.000000

 SYSTEM =  unknown system
 POSCAR =  C  H  O  Si W

 Startparameter for this run:
   NWRITE =      2    write-flag & timer
   PREC   = normal    normal or accurate (medium, high low for compatibility)
   ISTART =      0    job   : 0-new  1-cont  2-samecut
   ICHARG =      2    charge: 1-file 2-atom 10-const
   ISPIN  =      1    spin polarized calculation?
   LNONCOLLINEAR =      F non collinear calculations
   LSORBIT =      F    spin-orbit coupling
   INIWAV =      1    electr: 0-lowe 1-rand  2-diag
   LASPH  =      T    aspherical Exc in radial PAW
   METAGGA=      F    non-selfconsistent MetaGGA calc.

 Electronic Relaxation 1
   ENCUT  =  500.0 eV  36.75 Ry    6.06 a.u.  42.68 33.04 49.01*2*pi/ulx,y,z
   ENINI  =  500.0     initial cutoff
   ENAUG  =  644.9 eV  augmentation charge cutoff
   NELM   =     60;   NELMIN=  2; NELMDL=  0     # of ELM steps
   EDIFF  = 0.1E-03   stopping-criterion for ELM
[...]
   0.386E+02 0.678E+01 -.215E+03   -.421E+02 -.924E+01 0.223E+03   0.358E+01 0.248E+01 -.719E+01   0.111E-03 -.254E-03 0.115E-03
   0.963E+02 0.274E+02 0.131E+03   -.104E+03 -.310E+02 -.130E+03   0.737E+01 0.362E+01 -.922E+00   -.471E-04 -.187E-03 -.217E-03
   0.276E+02 0.737E+02 0.168E+03   -.299E+02 -.810E+02 -.171E+03   0.240E+01 0.751E+01 0.249E+01   -.589E-04 -.171E-03 -.508E-04
   0.832E+02 0.519E+02 0.179E+03   -.904E+02 -.548E+02 -.181E+03   0.733E+01 0.292E+01 0.253E+01   -.515E-04 -.884E-05 0.434E-04
   0.484E+02 -.601E+02 0.163E+03   -.540E+02 0.659E+02 -.164E+03   0.572E+01 -.579E+01 0.116E+01   0.273E-03 -.152E-03 0.143E-03
   0.930E+02 0.257E+02 0.149E+03   -.101E+03 -.271E+02 -.149E+03   0.814E+01 0.144E+01 0.300E+00   -.984E-04 -.165E-03 0.175E-03
   -.644E+01 -.671E+02 0.394E+02   0.872E+01 0.741E+02 -.369E+02   -.237E+01 -.718E+01 -.261E+01   -.235E-03 -.488E-03 0.152E-03
   0.237E+02 -.873E+02 -.113E+02   -.239E+02 0.957E+02 0.116E+02   0.170E+00 -.840E+01 -.241E+00   0.110E-03 -.747E-03 0.205E-03
   -.371E+02 -.789E+02 0.194E+03   0.392E+02 0.860E+02 -.197E+03   -.220E+01 -.716E+01 0.348E+01   0.375E-04 -.192E-05 -.846E-04
   0.532E+02 -.432E+02 -.833E+02   -.588E+02 0.481E+02 0.799E+02   0.567E+01 -.495E+01 0.340E+01   0.104E-03 -.319E-03 0.207E-03
   0.415E+01 -.591E+02 -.130E+03   -.621E+01 0.669E+02 0.132E+03   0.208E+01 -.781E+01 -.221E+01   -.853E-03 0.837E-04 0.492E-04
   0.613E+02 -.131E+02 -.713E+02   -.682E+02 0.115E+02 0.680E+02   0.690E+01 0.156E+01 0.329E+01   -.439E-03 -.243E-03 -.638E-03
   -.263E+01 -.824E+02 -.192E+03   0.257E+01 0.894E+02 0.197E+03   0.534E-01 -.699E+01 -.463E+01   -.113E-03 0.157E-02 0.109E-02
   -.348E+02 0.208E+02 0.990E+02   0.396E+02 -.256E+02 -.103E+03   -.492E+01 0.497E+01 0.435E+01   0.493E-04 0.465E-04 -.478E-03
   -.749E+02 0.279E+02 0.972E+02   0.814E+02 -.310E+02 -.968E+02   -.678E+01 0.325E+01 -.455E+00   0.644E-04 0.802E-03 -.379E-03
   0.337E+02 0.512E+02 -.189E+03   -.377E+02 -.533E+02 0.196E+03   0.405E+01 0.207E+01 -.705E+01   0.323E-03 -.690E-03 0.152E-02
   0.288E+02 -.474E+02 0.164E+03   -.311E+02 0.546E+02 -.166E+03   0.234E+01 -.731E+01 0.185E+01   0.320E-04 0.185E-03 -.439E-03
   -.289E+02 0.711E+02 0.149E+03   0.288E+02 -.786E+02 -.148E+03   0.915E-01 0.772E+01 -.584E+00   0.303E-03 0.749E-03 0.530E-03
   -.618E+02 -.777E+02 0.117E+03   0.664E+02 0.843E+02 -.118E+03   -.469E+01 -.669E+01 0.105E+01   -.724E-04 0.731E-03 -.383E-03
   0.120E+03 -.102E+02 0.128E+03   -.128E+03 0.104E+02 -.127E+03   0.828E+01 -.202E+00 -.538E+00   0.411E-04 0.175E-03 -.113E-03
   0.366E+02 0.456E+01 0.719E+02   -.442E+02 -.368E+01 -.714E+02   0.779E+01 -.934E+00 -.610E+00   -.210E-02 0.281E-03 0.674E-03
   -.627E+02 -.453E+02 -.208E+03   0.662E+02 0.503E+02 0.214E+03   -.345E+01 -.493E+01 -.590E+01   -.806E-03 -.178E-03 -.107E-02
   0.453E+02 0.594E+02 0.772E+02   -.486E+02 -.655E+02 -.738E+02   0.328E+01 0.627E+01 -.354E+01   0.163E-03 -.138E-03 -.219E-05
   -.156E+02 -.346E+02 0.129E+03   0.159E+02 0.410E+02 -.132E+03   -.263E+00 -.677E+01 0.317E+01   -.234E-03 -.480E-04 -.218E-03
   0.190E+02 -.453E+02 0.180E+03   -.233E+02 0.510E+02 -.182E+03   0.441E+01 -.594E+01 0.228E+01   -.857E-04 -.503E-04 -.302E-04
   -.202E+01 -.366E+02 0.238E+03   0.255E+01 0.404E+02 -.245E+03   -.515E+00 -.386E+01 0.729E+01   -.546E-05 -.241E-04 -.808E-04
   0.442E+02 -.136E+02 0.191E+03   -.502E+02 0.170E+02 -.195E+03   0.618E+01 -.353E+01 0.405E+01   -.470E-04 -.451E-05 -.126E-03
   -.161E+01 0.498E+02 0.228E+03   0.969E+00 -.516E+02 -.236E+03   0.646E+00 0.182E+01 0.808E+01   -.121E-03 -.218E-04 -.367E-04
   0.673E+02 0.429E+01 -.687E+02   -.750E+02 -.446E+01 0.719E+02   0.771E+01 0.183E+00 -.308E+01   -.750E-03 -.892E-03 0.158E-03
   0.667E+02 -.680E+02 -.151E+03   -.725E+02 0.740E+02 0.152E+03   0.579E+01 -.603E+01 -.873E+00   -.699E-03 0.128E-02 0.315E-03
   0.171E+02 0.766E+02 -.106E+03   -.156E+02 -.845E+02 0.105E+03   -.142E+01 0.794E+01 0.122E+01   -.489E-03 -.377E-03 -.767E-04
   0.172E+02 0.171E+02 -.535E+01   -.226E+02 -.196E+02 0.980E+01   0.559E+01 0.252E+01 -.459E+01   0.220E-03 0.626E-03 0.450E-03
   0.283E+02 -.519E+02 0.527E+02   -.335E+02 0.562E+02 -.488E+02   0.525E+01 -.445E+01 -.402E+01   -.117E-03 0.351E-03 0.131E-03
   0.149E+02 -.263E+02 0.208E+03   -.169E+02 0.271E+02 -.216E+03   0.214E+01 -.795E+00 0.797E+01   -.129E-03 -.137E-03 -.119E-03
   -.765E+02 -.273E+02 0.198E+03   0.837E+02 0.283E+02 -.202E+03   -.723E+01 -.106E+01 0.394E+01   -.127E-04 0.413E-04 0.143E-03
   -.831E+02 -.367E+02 0.134E+03   0.901E+02 0.407E+02 -.134E+03   -.716E+01 -.403E+01 -.163E+00   0.889E-04 0.204E-03 -.588E-04
   -.102E+03 0.111E+02 0.154E+03   0.109E+03 -.131E+02 -.155E+03   -.796E+01 0.202E+01 0.105E+01   -.111E-03 0.349E-04 0.410E-04
   0.299E+00 -.695E+02 0.100E+03   0.998E+00 0.762E+02 -.960E+02   -.133E+01 -.693E+01 -.420E+01   0.108E-03 0.206E-03 -.142E-03
   -.322E+02 -.494E+02 0.218E+03   0.361E+02 0.539E+02 -.224E+03   -.406E+01 -.454E+01 0.559E+01   0.246E-03 0.204E-03 -.589E-04
   0.759E+02 0.223E+02 0.109E+03   -.819E+02 -.264E+02 -.111E+03   0.621E+01 0.436E+01 0.246E+01   0.124E-03 -.123E-03 0.786E-04
   0.508E+02 0.514E+02 -.111E+03   -.561E+02 -.576E+02 0.109E+03   0.533E+01 0.621E+01 0.169E+01   0.533E-03 -.115E-04 -.585E-03
   -.189E+02 -.678E+02 -.196E+03   0.214E+02 0.737E+02 0.201E+03   -.245E+01 -.590E+01 -.546E+01   0.128E-03 -.893E-03 -.974E-03
   0.171E+02 0.135E+02 -.226E+03   -.189E+02 -.154E+02 0.234E+03   0.182E+01 0.198E+01 -.797E+01   -.244E-03 0.109E-03 0.331E-03
   0.240E+02 -.742E+02 -.199E+03   -.239E+02 0.810E+02 0.204E+03   -.149E+00 -.684E+01 -.491E+01   0.525E-03 0.156E-02 0.880E-03
   0.135E+02 0.686E+02 -.113E+03   -.162E+02 -.734E+02 0.111E+03   0.270E+01 0.486E+01 0.141E+01   -.714E-03 0.150E-03 0.146E-03
   -.105E+02 -.581E+01 -.944E+02   0.106E+02 0.992E+01 0.905E+02   -.954E-01 -.417E+01 0.393E+01   -.871E-03 -.393E-03 0.875E-03
   -.441E+02 0.269E+02 -.141E+03   0.487E+02 -.294E+02 0.142E+03   -.473E+01 0.257E+01 -.105E+01   0.103E-04 0.448E-03 -.240E-03
   0.419E+02 0.320E+02 -.150E+03   -.460E+02 -.348E+02 0.153E+03   0.417E+01 0.284E+01 -.240E+01   -.110E-02 0.235E-03 -.638E-03
   -.250E+01 -.560E+02 -.147E+03   0.276E+01 0.608E+02 0.150E+03   -.252E+00 -.487E+01 -.230E+01   -.396E-03 -.169E-03 -.865E-03
   -.420E+02 -.258E+02 -.122E+03   0.458E+02 0.283E+02 0.119E+03   -.387E+01 -.259E+01 0.265E+01   -.133E-02 -.455E-03 0.717E-03
   -.418E+02 -.327E+02 -.144E+03   0.445E+02 0.375E+02 0.146E+03   -.267E+01 -.482E+01 -.142E+01   -.342E-04 -.387E-04 0.920E-03
   -.131E+02 0.533E+02 -.154E+03   0.129E+02 -.574E+02 0.158E+03   0.192E+00 0.409E+01 -.395E+01   -.198E-03 0.409E-03 0.627E-03
   -.156E+03 0.502E+02 0.333E+03   0.170E+03 -.615E+02 -.324E+03   -.141E+02 0.115E+02 -.940E+01   -.267E-02 -.152E-02 0.366E-02
   -.179E+03 0.421E+02 0.380E+03   0.206E+03 -.578E+02 -.390E+03   -.279E+02 0.163E+02 0.956E+01   0.125E-03 0.213E-02 0.230E-02
   -.201E+03 0.131E+03 -.942E+03   0.198E+03 -.170E+03 0.943E+03   0.327E+01 0.391E+02 -.918E+00   -.211E-02 0.368E-02 0.307E-02
   -.309E+02 0.262E+02 0.848E+02   0.539E+02 -.355E+02 -.114E+03   -.230E+02 0.930E+01 0.296E+02   0.234E-02 -.906E-03 0.435E-03
[...]
   -.482E+02 -.128E+02 0.215E+03   0.476E+02 0.116E+02 -.217E+03   0.453E+00 0.742E+00 0.900E+00   -.852E-03 -.179E-02 0.280E-03
   0.718E+02 -.433E+02 -.155E+03   -.663E+02 0.412E+02 0.151E+03   -.553E+01 0.213E+01 0.309E+01   0.252E-02 0.165E-02 0.996E-03
   -.880E+02 -.223E+02 0.376E+03   0.881E+02 0.202E+02 -.377E+03   -.163E+00 0.202E+01 0.173E+01   -.820E-03 0.476E-03 0.157E-02
   -.661E+02 0.940E+02 -.256E+03   0.658E+02 -.943E+02 0.258E+03   0.323E+00 0.276E+00 -.186E+01   0.362E-02 0.276E-02 0.115E-02
   -.115E+02 0.150E+01 0.288E+02   0.122E+02 -.469E+01 -.311E+02   -.986E+00 0.962E+01 0.180E+01   -.633E-03 0.219E-03 0.226E-03
   -.287E+02 0.851E+02 0.455E+03   0.287E+02 -.835E+02 -.456E+03   -.431E-01 -.174E+01 0.154E+01   -.121E-02 -.433E-04 0.134E-03
   0.924E+02 -.484E+01 -.282E+02   -.910E+02 0.710E+01 0.285E+02   -.139E+01 -.239E+01 -.632E+00   0.181E-02 0.183E-02 -.167E-03
   0.116E+03 0.169E+02 0.145E+03   -.110E+03 -.962E+01 -.149E+03   -.282E+02 -.231E+02 0.860E+01   0.969E-03 -.190E-03 -.307E-03
   -.156E+02 0.841E+02 -.397E+03   0.174E+02 -.827E+02 0.397E+03   -.182E+01 -.143E+01 0.457E+00   0.463E-02 0.563E-02 0.990E-03
   -.307E+02 0.298E+02 0.126E+03   0.307E+02 -.307E+02 -.126E+03   -.198E+00 0.851E+00 -.109E+01   -.359E-03 0.341E-03 -.215E-02
   0.543E+02 -.181E+02 -.367E+03   -.549E+02 0.188E+02 0.368E+03   0.538E+00 -.752E+00 -.939E+00   0.583E-02 0.274E-02 0.134E-02
   0.571E+02 -.589E+02 -.314E+03   -.579E+02 0.542E+02 0.314E+03   0.878E+00 0.471E+01 -.129E+00   0.231E-02 -.469E-03 0.394E-03
   0.101E+03 0.735E+02 -.208E+03   -.972E+02 -.704E+02 0.210E+03   -.354E+01 -.315E+01 -.208E+01   -.268E-02 0.172E-02 0.103E-02
   0.980E+02 0.877E+02 -.782E+03   -.967E+02 -.868E+02 0.785E+03   -.127E+01 -.825E+00 -.297E+01   -.844E-02 -.350E-02 0.752E-03
   0.325E+03 -.222E+03 -.114E+03   0.190E-11 -.242E-12 0.500E-11   -.325E+03 0.223E+03 0.114E+03   0.979E-01 -.137E+00 0.204E-01

 POSITION                                       TOTAL-FORCE (eV/Angst)
     15.46034      7.59206     19.21518         0.006097     -0.007178     -0.006712
     12.88124      9.38713     21.31499        -0.002046     -0.013777      0.001065
     12.66723      9.52731     19.83185        -0.013156     -0.005630      0.004921
     16.02884      7.75317     20.41848         0.010664     -0.004368     -0.015457
     17.81044      1.88024     17.50370         0.000483     -0.001153      0.001672
     21.68887      5.04983      9.57948         0.102781      0.072807     -0.024326
     18.57311      3.75615     10.03977         0.039079      0.113230      0.047556
     22.81522     17.09936      8.74523         0.109756      0.056736      0.031705
     14.64921     17.45932     10.08748         0.055364     -0.005186     -0.057527
     19.20987     18.03075      9.91976         0.121838      0.024080      0.001177
     17.55831      2.55833     12.31361        -0.107320     -0.220188     -0.129476
     21.43227      4.52058     13.68727        -0.000033     -0.000677      0.000265
     13.66032      5.51363      8.22435        -0.100135     -0.128808      0.044041
     20.86079      6.05721     16.56432         0.005418     -0.005257      0.004429
     13.94656      6.56930     16.48788        -0.006951     -0.006791     -0.001067
     13.89449     15.78277     15.53434        -0.001638     -0.002485      0.000528
      0.77754      6.10882     17.55300         0.000442      0.015273      0.011041
     21.89589      7.60212     12.20778        -0.088291      0.135348      0.068864
     17.46807      9.60991     11.35790        -0.322194      0.161841     -0.037671
     18.69227      6.97114     17.11876        -0.002342     -0.000210      0.000179
     13.83846     10.30524     10.16285         0.097182     -0.183493      0.066085
     16.81947     11.70510     10.30871        -0.028346      0.243434     -0.018390
     19.69248      9.82944     11.28016        -0.104317     -0.099528      0.015980
      0.11154     10.94157      9.61829         0.112475     -0.008808     -0.028348
     19.39295     12.90878     12.57986         0.232800     -0.038764     -0.052722
     20.53791     10.85195     19.39188         0.001391      0.000043      0.000064
     12.17365     17.85965     11.33680         0.013531      0.130550     -0.098499
      5.22293     17.76162     10.57067        -0.010522     -0.357224      0.121768
      5.06559      4.31016      8.58199         0.180087     -0.200208      0.071916
      3.68730      5.97650      7.50000         0.015141     -0.079632      0.122638
      7.99605      2.81941      8.89229         0.085578     -0.090695      0.066712
      5.21407      0.82921      8.67630         0.004030      0.017821      0.151594
     11.96668     14.98514     14.70260         0.005316      0.000483     -0.002891
      8.63554      4.24783     17.41961        -0.005364      0.005955     -0.000206
      5.69505      1.69338     16.09793        -0.001652     -0.000664     -0.001463
      7.38348      8.82752     11.89413         0.228602      0.093196     -0.170114
      9.57419      7.95042     10.90633         0.117461     -0.109672     -0.118917
      9.32939     14.37220     10.45190         0.064985     -0.000481      0.125146
      5.71709     11.87720      7.91250        -0.104965     -0.017246      0.043038
      7.29827      7.58330      9.92689        -0.165640     -0.091986     -0.009765
      9.49268     10.58787      9.10862        -0.110200      0.038596     -0.003724
      3.26254      8.84269      9.46105        -0.024093     -0.204521     -0.119931
     13.88920     12.64839      9.47364        -0.127366     -0.095870      0.167371
     10.98006     15.61013     11.93160         0.307007      0.327307      0.159792
      2.87852      5.87722     16.49406         0.003806      0.003904      0.001341
      1.73815     12.02712     17.37423        -0.002904     -0.008119     -0.006809
      5.73935      7.04683     18.33525        -0.002883     -0.003497      0.010255
      5.80571     14.76011     18.02163         0.002680      0.021062      0.011466
     14.94282      6.66856     18.94427         0.007966     -0.012382     -0.011499
     15.48053      8.38365     18.46334        -0.002633     -0.006782     -0.014222
     13.83401      8.87439     21.52753        -0.000934     -0.016505     -0.012632
     12.05931      8.82976     21.78575         0.004737     -0.013374      0.003329
     12.93516     10.38788     21.78108         0.003881     -0.016587      0.007362
     13.46089     10.06572     19.27782        -0.006938     -0.007964     -0.004344
     16.54110      8.67916     20.69379         0.005885     -0.000781     -0.018452
     15.99299      6.96896     21.17951         0.020950     -0.006211     -0.016318
      8.63740     11.74900     11.80180        -0.215697      0.121667     -0.181943
      8.11940      9.13372     11.30145        -0.087294      0.608592      0.025326
     20.14954     10.26093     18.73002         0.013450     -0.006807      0.009460
      8.16186     17.40334     14.26191        -0.003098     -0.002130      0.003910
[...]
      5.71814      6.71222     11.31648         0.016907     -0.120138     -0.098089
     15.41693      5.98005     12.10687        -0.139706     -0.471448     -0.829792
     10.78200      5.78184     14.22132         0.001849      0.000630      0.002068
      7.89661     10.69049     10.72869        -0.134921     -0.074054     -0.050669
     18.80104      8.63153     15.59235        -0.000740      0.005108      0.007768
      1.62029     16.28844     12.91761        -0.326318      6.435000     -0.539683
      4.96103      2.61769     10.04353        -0.073578     -0.041235      0.069395
      1.83153      8.95162     13.29887         0.049934     -0.123394     -0.310918
     13.05344     15.44546     12.76235       -22.320900    -15.849253      4.728598
     16.82004     10.60080     16.38617         0.001978      0.010035      0.005316
      6.71066      3.80730     12.34244        -0.225563      0.004232     -0.767530
      2.07027     11.33671     15.26080         0.000727      0.000253     -0.001742
      8.25646      0.39118     15.54108         0.003410      0.000660     -0.000431
     11.39912      8.73591     15.42765         0.002043      0.002322      0.008109
     11.21888      9.15609     18.65992        -0.001501     -0.005131     -0.006146
    total drift:                                0.120491      0.454614      0.142440

  FREE ENERGIE OF THE ION-ELECTRON SYSTEM (eV)
  free  energy   TOTEN  =     -1886.30585130 eV

  energy  without entropy=    -1886.30585130  energy(sigma->0) =    -1886.30585130

 d Force = 0.1311350E-02[ 0.124E-03, 0.250E-02]  d Energy = 0.1273427E-02 0.379E-04
 d Force = 0.1406702E+01[ 0.140E+01, 0.141E+01]  d Ewald  = 0.1406703E+01-0.118E-05

 stress matrix after NEB project (eV)
    -33.03635      0.34028      0.33612
      0.34028    -33.35222     -0.02082
      0.33612     -0.02082    -25.18721
  FORCES: max atom, RMS     0.035934    0.008758
  FORCE total and by dimension    0.145494    0.035419
  Stress total and by dimension   53.278750   33.352225
 Quasi-Newton relaxation of ions (Broydens 2nd method)
  g(Force)  = 0.102E-02   g(Stress)= 0.000E+00

 retain information from N=  1 steps
 eigenvalues of (default step * inverse Hessian matrix)
  average eigenvalue of G=   0.2312
 eigenvalue spectrum of G is  0.2312

 reached required accuracy - stopping structural energy minimisation