 vasp.5.4.4.18Apr17-6-g9f103f2a35 (build Oct 20 2021 08:33:53) complex
 executed on             LinuxGNU date 2025.03.08  14:11:42

 INCAR:
 POTCAR:    PAW_PBE C 08Apr2002
 POTCAR:    PAW_PBE H 15Jun2001
 POTCAR:    PAW_PBE O 08Apr2002
 POTCAR:    PAW_PBE Si 05Jan2001
 POTCAR:    PAW_PBE W 08Apr2002
 POTCAR:    PAW_PBE C 08Apr2002
   VRHFIN =C: s2p2

   TITEL  = PAW_PBE C 08Apr2002
   POMASS =   12.011; ZVAL   =    4.000    mass and valenz
   ENMAX  =  400.000; ENMIN  =  300.000 eV

 POTCAR:    PAW_PBE H 15Jun2001
   VRHFIN =H: ultrasoft test

   TITEL  = PAW_PBE H 15Jun2001
   POMASS =    1.000; ZVAL   =    1.000    mass and valenz
   ENMAX  =  250.000; ENMIN  =  200.000 eV

 POTCAR:    PAW_PBE O 08Apr2002
   VRHFIN =O: s2p4

[...]

 POTCAR:    PAW_PBE Si 05Jan2001
   VRHFIN =Si: s2p2

   TITEL  = PAW_PBE Si 05Jan2001
   POMASS =   28.085; ZVAL   =    4.000    mass and valenz
   ENMAX  =  245.345; ENMIN  =  184.009 eV

 POTCAR:    PAW_PBE W 08Apr2002
   VRHFIN =W : 6s5d

   TITEL  = PAW_PBE W 08Apr2002
   POMASS =  183.850; ZVAL   =    6.000    mass and valenz
   ENMAX  =  223.057; ENMIN  =  167.293 eV

 Optimization of the real space projectors (new method)

 maximal supplied QI-value         = 25.13
 optimisation between [QCUT,QGAM] = [ 11.31, 22.87] = [ 35.82,146.48] Ry
 Optimized for a Real-space Cutoff    1.00 Angstroem

   l    n(q)    QCUT    max X(q) W(low)/X(q) W(high)/X(q)  e(spline)
   0      7    11.310   115.676    0.43E-03    0.13E-02    0.19E-06
   0      7    11.310    87.132    0.43E-03    0.13E-02    0.18E-06
   1      6    11.310     4.429    0.42E-03    0.74E-03    0.11E-06
   1      6    11.310     2.733    0.34E-03    0.55E-03    0.92E-07
 Optimization of the real space projectors (new method)

[...]

   l    n(q)    QCUT    max X(q) W(low)/X(q) W(high)/X(q)  e(spline)
   0      8    11.310   159.560    0.27E-03    0.30E-03    0.39E-07
   0      8    11.310   115.863    0.27E-03    0.30E-03    0.38E-07
   1      7    11.310    88.339    0.28E-03    0.28E-03    0.77E-07
   1      7    11.310    48.592    0.27E-03    0.27E-03    0.74E-07
 Optimization of the real space projectors (new method)

 maximal supplied QI-value         = 13.61
 optimisation between [QCUT,QGAM] = [ 11.43, 22.86] = [ 36.58,146.31] Ry
 Optimized for a Real-space Cutoff    1.56 Angstroem

   l    n(q)    QCUT    max X(q) W(low)/X(q) W(high)/X(q)  e(spline)
   2     10    11.429   130.855    0.22E-03    0.64E-03    0.11E-05
   2     10    11.429   114.007    0.22E-03    0.64E-03    0.11E-05
   0     11    11.429    84.709    0.39E-04    0.67E-04    0.23E-06
   0     11    11.429    49.163    0.35E-04    0.62E-04    0.21E-06
   1     10    11.429    15.765    0.84E-04    0.15E-03    0.24E-06
   1     10    11.429    10.638    0.58E-04    0.12E-03    0.19E-06

  PAW_PBE C 08Apr2002                   :
  PAW_PBE H 15Jun2001                   :
  PAW_PBE O 08Apr2002                   :
  PAW_PBE Si 05Jan2001                  :
  PAW_PBE W 08Apr2002                   :

 POSCAR: C  H  O  Si W
  positions in direct lattice
  velocities in cartesian coordinates
 exchange correlation table for  LEXCH =        9
   RHO(1)=    0.500       N(1)  =     2000
   RHO(2)=  100.500       N(2)  =     4000

 VTST: version 3.2, (02/03/18)

 CHAIN: initializing optimizer

 OPT: Using VASP Conjugate-Gradient optimizer
 CHAIN: Read ICHAIN            0

 POSCAR: C  H  O  Si W
  positions in direct lattice
  velocities in cartesian coordinates

 ion  position               nearest neighbor table
   1  0.624  0.550  0.757-  51 1.09  50 1.09   2 1.34
   2  0.583  0.550  0.792-  52 1.10   1 1.34   4 1.51
   3  0.394  0.448  0.679-  53 1.11   5 1.51 279 1.91
   4  0.543  0.613  0.803-  55 1.10  56 1.10  54 1.10   2 1.51
   5  0.362  0.396  0.713-  58 1.10  57 1.10  59 1.10   3 1.51
   6  0.762  0.103  0.652- 134 0.97
   7  0.926  0.279  0.356-  82 0.98
   8  0.793  0.207  0.373- 117 0.97
   9  0.975  0.944  0.325- 126 0.97
  10  0.626  0.963  0.375- 128 0.98
  11  0.821  0.995  0.369- 146 0.97
  12  0.750  0.141  0.458- 184 0.98
  13  0.915  0.249  0.509- 189 0.97
  14  0.583  0.304  0.306- 194 0.97
  15  0.891  0.335  0.615- 100 0.98
  16  0.587  0.358  0.615- 145 0.97
  17  0.594  0.871  0.578- 187 0.99
  18  0.032  0.339  0.652- 193 0.97
  19  0.935  0.420  0.454- 182 0.98
  20  0.746  0.530  0.422-  96 1.00
  21  0.800  0.384  0.636- 174 0.97
  22  0.591  0.569  0.378- 108 0.99
  23  0.718  0.646  0.383- 131 0.99
  24  0.841  0.542  0.420- 137 0.98
  25  0.005  0.604  0.358- 142 0.97
  26  0.828  0.712  0.468- 183 0.99
  27  0.871  0.596  0.724-  62 0.97
  28  0.520  0.986  0.422- 144 0.99
  29  0.223  0.980  0.393- 185 1.00
  30  0.216  0.238  0.319- 200 0.99
  31  0.158  0.330  0.279- 191 0.97
  32  0.342  0.156  0.331- 192 0.98
  33  0.223  0.046  0.323- 199 0.97
  34  0.511  0.826  0.547- 202 0.97
  35  0.390  0.248  0.650-  87 0.97
  36  0.244  0.094  0.599- 138 0.98
  37  0.315  0.487  0.442-  61 0.99
  38  0.409  0.439  0.406- 150 0.98
  39  0.398  0.793  0.389- 188 0.97
  40  0.244  0.655  0.294- 196 0.97
  41  0.312  0.418  0.369- 197 0.98
  42  0.405  0.584  0.339- 198 0.97
  43  0.139  0.488  0.352- 190 0.98
  44  0.593  0.698  0.352-  91 0.97
  45  0.469  0.861  0.444- 201 0.99
  46  0.118  0.323  0.610- 110 0.97
  47  0.071  0.666  0.645- 141 0.97
  48  0.230  0.390  0.683- 186 0.97
  49  0.248  0.815  0.670- 195 0.97
  50  0.651  0.502  0.750-   1 1.09
  51  0.631  0.598  0.733-   1 1.09
  52  0.577  0.500  0.814-   2 1.10
  53  0.370  0.468  0.647-   3 1.11
  54  0.548  0.631  0.842-   4 1.10
  55  0.551  0.660  0.779-   4 1.10
  56  0.498  0.596  0.799-   4 1.10
  57  0.344  0.349  0.692-   5 1.10
  58  0.389  0.375  0.743-   5 1.10
  59  0.325  0.425  0.730-   5 1.10
  60  0.369  0.648  0.439- 233 1.66 268 1.68
[...]
 221  0.214  0.476  0.510- 181 1.61 180 1.63 140 1.66 177 1.66 232 3.10 265 3.14
 222  0.915  0.756  0.496- 105 1.65 183 1.65  89 1.65  94 1.66 235 2.99 243 3.03
 223  0.521  0.110  0.426- 116 1.64  67 1.65 144 1.66 124 1.67 254 3.08 237 3.12
 224  0.419  0.169  0.590-  87 1.64 204 1.65 104 1.68 164 1.69 264 3.14 277 3.15
 225  0.083  0.139  0.407-  66 1.64 147 1.65  92 1.65 160 1.66 218 3.11 217 3.13 271 3.14
 226  0.702  0.045  0.487-  99 1.64 168 1.65  65 1.65 184 1.66 237 3.09 227 3.10
 227  0.665  0.898  0.437-  98 1.53 168 1.66 128 1.66 159 1.67 273 2.83 260 3.06 226 3.10
 228  0.650  0.504  0.430- 108 1.65 166 1.65  96 1.67 102 1.68 236 3.08
 229  0.198  0.912  0.464- 139 1.50 185 1.64 162 1.66 118 1.67 247 3.01 244 3.06 270 3.07
 230  0.211  0.367  0.602-  86 1.63 181 1.63 110 1.64 186 1.65
 231  0.674  0.814  0.595- 187 1.62 119 1.64 101 1.68 209 1.71 258 2.90
 232  0.217  0.642  0.539- 179 1.63 172 1.63 205 1.65 140 1.65 247 3.09 221 3.10 276 3.12
 233  0.369  0.735  0.459-  76 1.65 107 1.66  60 1.66 188 1.68
 234  0.798  0.888  0.596- 143 1.66 101 1.66 112 1.67 208 1.68 243 2.86 235 2.99 261 3.15
 235  0.880  0.912  0.512-  75 1.60  94 1.62 112 1.65 120 1.65 222 2.99 234 2.99 259 3.05 250 3.13

 236  0.577  0.576  0.512- 102 1.58 169 1.62 103 1.63 136 1.65 246 2.99 228 3.08 220 3.14
 237  0.590  0.115  0.525-  65 1.60 124 1.61 161 1.62 151 1.65 264 2.85 226 3.09 248 3.11 223 3.12

[...]

 275  0.287  0.210  0.459- 176 1.63 125 1.63  70 1.66 155 1.67 253 3.03 271 3.12
 276  0.088  0.625  0.568- 165 1.63 141 1.63 111 1.64 172 1.65 272 3.09 232 3.12 252 3.15
 277  0.353  0.018  0.579- 164 1.63  72 1.66 211 1.69  63 1.70 244 2.38 263 2.74 224 3.15
 278  0.489  0.478  0.574- 136 1.64  80 1.67 130 1.67  88 1.68 255 3.05 279 3.06
 279  0.469  0.490  0.686- 213 1.71   3 1.91 127 1.97  80 1.99 255 2.99 278 3.06

  LATTYP: Found a simple orthorhombic cell.
 ALAT       =    18.1212369514
 B/A-ratio  =     1.2919258579
 C/A-ratio  =     1.4835282260

  Lattice vectors:

 A1 = (   0.0000000000, -18.1212369514,   0.0000000000)
 A2 = ( -23.4112945954,   0.0000000000,   0.0000000000)
 A3 = (   0.0000000000,   0.0000000000, -26.8833665073)

Analysis of symmetry for initial positions (statically):
 Subroutine PRICEL returns:
 Original cell was already a primitive cell.

 Routine SETGRP: Setting up the symmetry group for a
 simple orthorhombic supercell.

 Subroutine GETGRP returns: Found  1 space group operations
 (whereof  1 operations were pure point group operations)
 out of a pool of  8 trial point group operations.

The static configuration has the point symmetry C_1 .

Analysis of symmetry for dynamics (positions and initial velocities):
 Subroutine PRICEL returns:
 Original cell was already a primitive cell.

[...]

The dynamic configuration has the point symmetry C_1 .

Analysis of constrained symmetry for selective dynamics:
 Subroutine PRICEL returns:
 Original cell was already a primitive cell.

 Routine SETGRP: Setting up the symmetry group for a
 simple orthorhombic supercell.

 Subroutine GETGRP returns: Found  1 space group operations
 (whereof  1 operations were pure point group operations)
 out of a pool of  8 trial point group operations.

The constrained configuration has the point symmetry C_1 .

 Subroutine INISYM returns: Found  1 space group operations
 (whereof  1 operations are pure point group operations),
 and found     1 'primitive' translations

 KPOINTS: KPOINTS created by Atomic Simulation Env

Automatic generation of k-mesh.
Space group operators:
 irot       det(A)        alpha          n_x          n_y          n_z        tau_x        tau_y        tau_z
    1     1.000000     0.000000     1.000000     0.000000     0.000000     0.000000     0.000000     0.000000

 Subroutine IBZKPT returns following result:

 Found      5 irreducible k-points:

 Following reciprocal coordinates:
            Coordinates               Weight
  0.000000  0.000000  0.000000      1.000000
  0.333333  0.000000  0.000000      2.000000
  0.000000  0.333333  0.000000      2.000000
  0.333333  0.333333  0.000000      2.000000
 -0.333333  0.333333  0.000000      2.000000

 Following cartesian coordinates:
            Coordinates               Weight
  0.000000  0.000000  0.000000      1.000000
  0.014238  0.000000  0.000000      2.000000
  0.000000  0.018395  0.000000      2.000000
  0.014238  0.018395  0.000000      2.000000
 -0.014238  0.018395  0.000000      2.000000

 SYSTEM =  unknown system
 POSCAR =  C  H  O  Si W

 Startparameter for this run:
   NWRITE =      2    write-flag & timer
   PREC   = normal    normal or accurate (medium, high low for compatibility)
   ISTART =      0    job   : 0-new  1-cont  2-samecut
   ICHARG =      2    charge: 1-file 2-atom 10-const
   ISPIN  =      1    spin polarized calculation?
   LNONCOLLINEAR =      F non collinear calculations
   LSORBIT =      F    spin-orbit coupling
   INIWAV =      1    electr: 0-lowe 1-rand  2-diag
   LASPH  =      T    aspherical Exc in radial PAW
   METAGGA=      F    non-selfconsistent MetaGGA calc.

 Electronic Relaxation 1
   ENCUT  =  500.0 eV  36.75 Ry    6.06 a.u.  42.68 33.04 49.01*2*pi/ulx,y,z
   ENINI  =  500.0     initial cutoff
   ENAUG  =  644.9 eV  augmentation charge cutoff
   NELM   =     60;   NELMIN=  2; NELMDL=  0     # of ELM steps
   EDIFF  = 0.1E-03   stopping-criterion for ELM
[...]
   -.146E+03 0.412E+02 -.464E+03   0.147E+03 -.411E+02 0.464E+03   -.322E+00 -.159E+00 0.409E+00   -.337E-03 0.239E-04 -.365E-03
   -.316E+02 0.580E+02 -.547E+03   0.318E+02 -.584E+02 0.547E+03   -.152E+00 0.402E+00 -.949E-01   0.114E-03 -.307E-05 -.835E-03
   0.113E+03 0.185E+02 -.452E+03   -.110E+03 -.179E+02 0.453E+03   -.291E+01 -.566E+00 -.110E+01   0.118E-03 0.190E-03 -.435E-03
   0.466E+02 -.981E+02 -.509E+03   -.467E+02 0.986E+02 0.509E+03   0.757E-01 -.531E+00 0.279E+00   0.125E-03 -.215E-03 -.776E-03
   0.997E+02 0.743E+02 -.562E+03   -.999E+02 -.753E+02 0.564E+03   0.209E+00 0.958E+00 -.125E+01   0.470E-04 0.131E-03 -.577E-03
   0.370E+02 0.506E+01 -.217E+03   -.404E+02 -.755E+01 0.224E+03   0.339E+01 0.252E+01 -.726E+01   -.438E-07 0.142E-04 -.136E-04
   0.967E+02 0.275E+02 0.131E+03   -.104E+03 -.310E+02 -.130E+03   0.737E+01 0.362E+01 -.923E+00   -.695E-06 0.778E-06 0.137E-04
   0.277E+02 0.736E+02 0.168E+03   -.300E+02 -.809E+02 -.171E+03   0.240E+01 0.751E+01 0.249E+01   0.538E-04 0.554E-05 -.655E-05
   0.835E+02 0.519E+02 0.179E+03   -.907E+02 -.547E+02 -.181E+03   0.733E+01 0.292E+01 0.253E+01   0.489E-05 0.173E-04 0.173E-04
   0.481E+02 -.602E+02 0.163E+03   -.537E+02 0.659E+02 -.165E+03   0.572E+01 -.579E+01 0.116E+01   0.303E-05 -.783E-05 -.377E-04
   0.931E+02 0.256E+02 0.149E+03   -.101E+03 -.270E+02 -.149E+03   0.814E+01 0.144E+01 0.298E+00   0.620E-04 0.154E-04 -.252E-04
   -.650E+01 -.675E+02 0.390E+02   0.878E+01 0.745E+02 -.365E+02   -.236E+01 -.718E+01 -.262E+01   0.392E-04 -.324E-05 -.226E-04
   0.248E+02 -.872E+02 -.111E+02   -.250E+02 0.957E+02 0.114E+02   0.170E+00 -.841E+01 -.232E+00   -.608E-05 0.186E-04 0.106E-04
   -.375E+02 -.789E+02 0.194E+03   0.396E+02 0.859E+02 -.197E+03   -.220E+01 -.716E+01 0.347E+01   -.934E-05 0.258E-04 -.470E-04
   0.528E+02 -.452E+02 -.848E+02   -.583E+02 0.504E+02 0.814E+02   0.545E+01 -.521E+01 0.335E+01   0.334E-04 -.364E-05 -.287E-04
   0.665E+01 -.514E+02 -.142E+03   -.101E+02 0.585E+02 0.144E+03   0.346E+01 -.713E+01 -.261E+01   -.256E-04 -.100E-04 0.136E-04
   0.605E+02 -.129E+02 -.705E+02   -.674E+02 0.113E+02 0.673E+02   0.695E+01 0.159E+01 0.325E+01   -.332E-04 0.264E-04 0.765E-04
   0.825E+00 -.834E+02 -.191E+03   -.902E+00 0.905E+02 0.195E+03   0.722E-01 -.711E+01 -.441E+01   0.247E-06 0.213E-04 -.644E-04
   -.338E+02 0.209E+02 0.992E+02   0.386E+02 -.257E+02 -.103E+03   -.492E+01 0.497E+01 0.435E+01   -.815E-05 0.211E-04 0.319E-04
   -.749E+02 0.282E+02 0.969E+02   0.814E+02 -.313E+02 -.965E+02   -.678E+01 0.325E+01 -.456E+00   0.644E-04 0.276E-05 0.117E-04
   0.395E+02 0.516E+02 -.193E+03   -.435E+02 -.538E+02 0.200E+03   0.404E+01 0.222E+01 -.704E+01   0.433E-04 -.408E-05 -.778E-04
   0.282E+02 -.474E+02 0.164E+03   -.305E+02 0.546E+02 -.166E+03   0.234E+01 -.731E+01 0.185E+01   -.180E-04 0.812E-05 -.538E-04
   -.291E+02 0.712E+02 0.149E+03   0.290E+02 -.787E+02 -.148E+03   0.913E-01 0.772E+01 -.586E+00   0.511E-04 0.193E-04 -.375E-04
   -.614E+02 -.775E+02 0.116E+03   0.660E+02 0.841E+02 -.118E+03   -.469E+01 -.668E+01 0.105E+01   0.414E-04 -.828E-05 0.165E-04
   0.121E+03 -.103E+02 0.128E+03   -.129E+03 0.105E+02 -.128E+03   0.828E+01 -.202E+00 -.540E+00   -.178E-04 0.175E-04 0.351E-04
   0.369E+02 0.468E+01 0.721E+02   -.444E+02 -.380E+01 -.716E+02   0.779E+01 -.934E+00 -.611E+00   0.553E-04 -.265E-04 -.160E-05
   -.472E+02 -.415E+02 -.215E+03   0.494E+02 0.463E+02 0.222E+03   -.217E+01 -.476E+01 -.662E+01   0.330E-04 -.118E-05 -.151E-03
   0.450E+02 0.593E+02 0.777E+02   -.483E+02 -.655E+02 -.743E+02   0.328E+01 0.627E+01 -.354E+01   -.313E-04 -.158E-04 0.299E-05
   -.155E+02 -.346E+02 0.129E+03   0.158E+02 0.410E+02 -.132E+03   -.263E+00 -.677E+01 0.317E+01   0.769E-05 -.435E-04 -.231E-04
   0.192E+02 -.451E+02 0.180E+03   -.235E+02 0.508E+02 -.183E+03   0.441E+01 -.594E+01 0.227E+01   0.731E-05 -.223E-04 -.402E-04
   -.174E+01 -.365E+02 0.238E+03   0.227E+01 0.403E+02 -.246E+03   -.515E+00 -.386E+01 0.730E+01   0.918E-05 -.398E-04 0.251E-05
   0.441E+02 -.134E+02 0.192E+03   -.502E+02 0.168E+02 -.196E+03   0.618E+01 -.353E+01 0.405E+01   0.214E-04 -.189E-04 -.443E-04
   -.149E+01 0.499E+02 0.229E+03   0.853E+00 -.517E+02 -.237E+03   0.646E+00 0.182E+01 0.808E+01   0.330E-05 -.247E-04 -.237E-04
   0.665E+02 0.652E+01 -.668E+02   -.742E+02 -.683E+01 0.700E+02   0.770E+01 0.320E+00 -.308E+01   -.673E-04 0.108E-04 0.491E-04
   0.226E+02 -.778E+02 -.151E+03   -.241E+02 0.860E+02 0.152E+03   0.153E+01 -.818E+01 -.139E+01   -.514E-05 0.229E-04 -.318E-04
   0.152E+02 0.782E+02 -.104E+03   -.136E+02 -.861E+02 0.103E+03   -.157E+01 0.794E+01 0.124E+01   0.380E-04 0.545E-05 0.246E-04
   0.171E+02 0.168E+02 -.327E+01   -.225E+02 -.193E+02 0.772E+01   0.559E+01 0.252E+01 -.459E+01   0.107E-04 0.351E-04 0.346E-04
   0.278E+02 -.519E+02 0.540E+02   -.329E+02 0.563E+02 -.501E+02   0.525E+01 -.445E+01 -.402E+01   -.241E-05 0.107E-04 -.568E-05
   0.146E+02 -.265E+02 0.208E+03   -.167E+02 0.273E+02 -.216E+03   0.214E+01 -.795E+00 0.797E+01   -.530E-05 0.314E-05 0.310E-04
   -.764E+02 -.274E+02 0.198E+03   0.835E+02 0.284E+02 -.202E+03   -.723E+01 -.106E+01 0.394E+01   0.310E-04 0.227E-04 0.929E-05
   -.831E+02 -.367E+02 0.135E+03   0.901E+02 0.406E+02 -.135E+03   -.716E+01 -.403E+01 -.164E+00   0.697E-05 0.106E-04 -.241E-04
   -.102E+03 0.110E+02 0.154E+03   0.110E+03 -.129E+02 -.156E+03   -.796E+01 0.202E+01 0.105E+01   -.105E-04 0.242E-04 -.375E-04
   0.724E+00 -.696E+02 0.101E+03   0.572E+00 0.763E+02 -.967E+02   -.133E+01 -.693E+01 -.420E+01   -.156E-04 0.269E-04 0.248E-04
   -.326E+02 -.494E+02 0.218E+03   0.365E+02 0.539E+02 -.224E+03   -.406E+01 -.454E+01 0.558E+01   -.181E-04 0.222E-04 -.824E-04
   0.757E+02 0.224E+02 0.110E+03   -.816E+02 -.264E+02 -.112E+03   0.621E+01 0.436E+01 0.246E+01   -.545E-04 -.571E-05 0.174E-04
   0.485E+02 0.554E+02 -.115E+03   -.536E+02 -.620E+02 0.114E+03   0.509E+01 0.660E+01 0.904E+00   0.163E-04 0.553E-04 0.213E-04
   -.111E+02 -.729E+02 -.193E+03   0.129E+02 0.792E+02 0.198E+03   -.177E+01 -.633E+01 -.524E+01   -.120E-04 -.212E-04 -.310E-04
   0.397E+02 0.129E+02 -.223E+03   -.425E+02 -.147E+02 0.231E+03   0.284E+01 0.181E+01 -.770E+01   0.404E-04 0.323E-04 -.122E-03
   0.239E+02 -.755E+02 -.198E+03   -.236E+02 0.824E+02 0.203E+03   -.270E+00 -.684E+01 -.486E+01   -.648E-05 -.433E-04 -.727E-04
   -.524E+02 0.589E+02 -.118E+03   0.557E+02 -.634E+02 0.118E+03   -.330E+01 0.450E+01 0.886E+00   -.102E-03 0.803E-04 -.110E-03
   -.288E+02 -.386E+02 -.112E+03   0.298E+02 0.431E+02 0.109E+03   -.916E+00 -.452E+01 0.330E+01   -.574E-04 -.553E-04 -.745E-04
   -.451E+01 0.587E+02 -.149E+03   0.380E+01 -.634E+02 0.152E+03   0.727E+00 0.472E+01 -.308E+01   0.399E-05 0.546E-04 -.198E-03
   0.533E+02 -.148E+02 -.680E+02   -.561E+02 0.165E+02 0.638E+02   0.279E+01 -.173E+01 0.428E+01   0.570E-04 0.548E-05 0.140E-04
   -.966E+00 -.313E+02 -.155E+03   0.148E+01 0.330E+02 0.160E+03   -.529E+00 -.168E+01 -.511E+01   0.107E-04 -.243E-04 -.134E-03
   -.324E+01 -.670E+02 -.101E+03   0.412E+01 0.713E+02 0.973E+02   -.896E+00 -.430E+01 0.330E+01   0.156E-05 -.324E-04 -.184E-03
   0.627E+02 -.282E+01 -.124E+03   -.678E+02 0.136E+01 0.123E+03   0.517E+01 0.151E+01 0.585E+00   0.351E-05 -.373E-04 -.196E-03
   0.305E+02 0.509E+02 -.113E+03   -.327E+02 -.550E+02 0.110E+03   0.219E+01 0.413E+01 0.273E+01   0.108E-04 0.567E-04 -.102E-03
   -.837E+01 0.393E+02 -.173E+03   0.116E+02 -.412E+02 0.178E+03   -.326E+01 0.192E+01 -.416E+01   -.867E-05 0.302E-04 -.175E-03
   0.597E+02 -.203E+02 -.159E+03   -.639E+02 0.229E+02 0.161E+03   0.419E+01 -.259E+01 -.220E+01   0.265E-04 -.138E-05 -.168E-03
   -.159E+03 0.466E+02 0.340E+03   0.173E+03 -.580E+02 -.331E+03   -.141E+02 0.114E+02 -.952E+01   -.353E-04 0.180E-03 0.199E-03
[...]
   -.518E+02 -.133E+02 0.212E+03   0.512E+02 0.121E+02 -.214E+03   0.445E+00 0.757E+00 0.859E+00   0.959E-04 -.283E-04 0.665E-04
   0.623E+02 -.332E+02 -.141E+03   -.566E+02 0.315E+02 0.138E+03   -.571E+01 0.176E+01 0.314E+01   -.107E-03 0.957E-04 0.311E-03
   -.889E+02 -.238E+02 0.380E+03   0.890E+02 0.218E+02 -.382E+03   -.164E+00 0.200E+01 0.170E+01   -.949E-05 0.120E-03 0.267E-04
   -.568E+02 0.993E+02 -.266E+03   0.565E+02 -.994E+02 0.268E+03   0.319E+00 0.821E-01 -.181E+01   0.212E-03 0.603E-05 -.149E-04
   -.976E+01 0.394E+00 0.309E+02   0.104E+02 -.364E+01 -.332E+02   -.958E+00 0.965E+01 0.175E+01   -.534E-04 -.981E-04 -.101E-03
   -.281E+02 0.862E+02 0.457E+03   0.281E+02 -.846E+02 -.458E+03   -.307E-01 -.173E+01 0.153E+01   -.261E-04 -.107E-03 -.170E-03
   0.971E+02 -.663E+01 -.226E+02   -.959E+02 0.887E+01 0.230E+02   -.130E+01 -.241E+01 -.679E+00   -.166E-03 -.489E-05 0.167E-03
   0.114E+03 0.172E+02 0.148E+03   -.108E+03 -.100E+02 -.152E+03   -.282E+02 -.231E+02 0.853E+01   -.280E-03 0.290E-04 0.933E-04
   -.169E+02 0.103E+03 -.402E+03   0.185E+02 -.102E+03 0.402E+03   -.159E+01 -.168E+01 0.312E+00   0.776E-04 -.495E-04 -.332E-04
   -.309E+02 0.348E+02 0.130E+03   0.309E+02 -.355E+02 -.130E+03   -.214E+00 0.751E+00 -.108E+01   0.124E-03 -.319E-04 0.171E-03
   0.601E+02 -.214E+02 -.364E+03   -.608E+02 0.222E+02 0.365E+03   0.658E+00 -.741E+00 -.889E+00   -.569E-04 -.754E-04 0.146E-03
   0.550E+02 -.577E+02 -.314E+03   -.561E+02 0.530E+02 0.314E+03   0.114E+01 0.470E+01 0.533E-01   0.861E-04 -.735E-04 0.239E-04
   0.647E+02 0.615E+02 -.186E+03   -.611E+02 -.595E+02 0.189E+03   -.363E+01 -.198E+01 -.293E+01   -.234E-03 0.625E-04 0.341E-03
   0.674E+02 0.669E+02 -.760E+03   -.704E+02 -.690E+02 0.761E+03   0.281E+01 0.211E+01 -.881E+00   -.422E-03 0.466E-04 -.843E-03
   0.344E+03 -.224E+03 -.975E+02   0.483E-12 -.384E-12 0.102E-11   -.343E+03 0.224E+03 0.979E+02   -.253E-02 0.265E-03 0.364E-02

 POSITION                                       TOTAL-FORCE (eV/Angst)
     14.60600      9.96976     20.34840        -0.016851     -0.003379      0.008563
     13.65223      9.95959     21.29277         0.026070     -0.011977     -0.017747
      9.23192      8.11550     18.26412         0.005377      0.015642     -0.037239
     12.72054     11.10369     21.59226        -0.013217     -0.013450      0.009460
      8.47264      7.18003     19.17479        -0.004774     -0.004049     -0.022454
     17.84034      1.87324     17.51603         0.002624      0.005964     -0.009137
     21.68887      5.04983      9.57948         0.102252      0.074147     -0.019126
     18.57311      3.75615     10.03977         0.038460      0.113883      0.053507
     22.81522     17.09936      8.74523         0.109410      0.058533      0.039393
     14.64921     17.45932     10.08748         0.056571     -0.005270     -0.051937
     19.20987     18.03075      9.91976         0.122207      0.025108      0.007066
     17.55831      2.55833     12.31361        -0.109460     -0.223331     -0.126919
     21.43251      4.52015     13.68613        -0.003375      0.025153     -0.002321
     13.66032      5.51363      8.22435        -0.100925     -0.131439      0.055272
     20.85049      6.06429     16.54152        -0.005051      0.008045     -0.006855
     13.74204      6.49592     16.53948         0.000582     -0.003320      0.009840
     13.90415     15.78076     15.53640        -0.016837      0.004696     -0.007763
      0.74786      6.13700     17.53157         0.004186     -0.013175     -0.010956
     21.89589      7.60212     12.20778        -0.088521      0.136287      0.073275
     17.46807      9.60991     11.35790        -0.315400      0.160165     -0.031832
     18.73812      6.95438     17.09528        -0.006684     -0.014660      0.017628
     13.83846     10.30524     10.16285         0.097794     -0.184353      0.069206
     16.81947     11.70510     10.30871        -0.028125      0.244287     -0.013352
     19.69248      9.82944     11.28016        -0.107280     -0.101162      0.020308
      0.11154     10.94157      9.61829         0.112791     -0.008314     -0.022800
     19.39295     12.90878     12.57986         0.224576     -0.037886     -0.052830
     20.39479     10.80828     19.45623         0.000241      0.012248      0.017050
     12.17365     17.85965     11.33680         0.014404      0.126813     -0.094842
      5.22293     17.76162     10.57067        -0.012124     -0.363691      0.129366
      5.06559      4.31016      8.58199         0.178052     -0.199737      0.079331
      3.68730      5.97650      7.50000         0.012278     -0.093567      0.207862
      7.99605      2.81941      8.89229         0.084883     -0.089830      0.072534
      5.21407      0.82921      8.67630         0.002512      0.019464      0.157476
     11.97218     14.96544     14.70158        -0.018053     -0.005308      0.004948
      9.12449      4.49320     17.46577        -0.001380      0.000507     -0.006706
      5.71389      1.69925     16.09280        -0.005063      0.010549      0.007347
      7.38348      8.82752     11.89413         0.225805      0.091622     -0.170738
      9.57419      7.95042     10.90633         0.120141     -0.109576     -0.116462
      9.32939     14.37220     10.45190         0.053971      0.002784      0.132061
      5.71709     11.87720      7.91250        -0.113988     -0.018441      0.064535
      7.29827      7.58330      9.92689        -0.166592     -0.092063     -0.006342
      9.49268     10.58787      9.10862        -0.111176      0.038789      0.001485
      3.26254      8.84269      9.46105        -0.025967     -0.204228     -0.116062
     13.88920     12.64839      9.47364        -0.126217     -0.095475      0.174199
     10.98006     15.61013     11.93160         0.316230      0.334341      0.167517
      2.75914      5.84825     16.38575        -0.017347     -0.017409     -0.004103
      1.65078     12.06888     17.34943        -0.004534     -0.010985     -0.006947
      5.38523      7.06235     18.35884        -0.002520     -0.020227     -0.029147
      5.79471     14.77740     18.01026        -0.008924     -0.004033      0.002048
     15.24557      9.10082     20.17442        -0.003010      0.011615     -0.006636
     14.77821     10.84306     19.71513         0.001756      0.005255     -0.003711
     13.50894      9.05588     21.89550        -0.002782      0.001127     -0.017594
      8.67085      8.47371     17.38034         0.006453     -0.007383      0.016083
     12.83087     11.44059     22.63801        -0.002566     -0.009547     -0.015304
     12.90576     11.96223     20.92896        -0.000604     -0.005733     -0.005774
     11.66851     10.79151     21.47223         0.013936      0.000593     -0.003033
      8.04512      6.33191     18.61304         0.002285     -0.004494     -0.014027
      9.11087      6.80219     19.98490         0.009740     -0.005191     -0.009059
      7.61272      7.70904     19.62342         0.003278     -0.008758     -0.013007
      8.63740     11.74900     11.80180        -0.234354      0.096092     -0.226350
[...]
      5.71814      6.71222     11.31648         0.020341     -0.130130     -0.076832
     15.41693      5.98005     12.10687        -0.140310     -0.482875     -0.769966
     10.79033      5.75479     14.21467         0.001766      0.025802     -0.034974
      7.89661     10.69049     10.72869        -0.133979     -0.067352     -0.025389
     18.82001      8.63315     15.58956        -0.006184     -0.003448     -0.006188
      1.62029     16.28844     12.91761        -0.333851      6.403068     -0.514192
      4.96103      2.61769     10.04353        -0.086642     -0.036729      0.099432
      1.83153      8.95162     13.29887        -0.001338     -0.166388     -0.279080
     13.05344     15.44546     12.76235       -22.300058    -15.850853      4.757215
     16.83334     10.59289     16.38986         0.005436      0.006454     -0.002046
      6.71066      3.80730     12.34244        -0.241632      0.035821     -0.704350
      2.05966     11.33341     15.26203        -0.001786      0.019209      0.002339
      8.27263      0.33495     15.56463         0.005554     -0.000259      0.011124
     11.44464      8.66751     15.42673         0.029044     -0.014596      0.018560
     10.96941      8.88143     18.43753        -0.022856     -0.031257     -0.006484
    total drift:                                0.287410      0.319083      0.401027

  FREE ENERGIE OF THE ION-ELECTRON SYSTEM (eV)
  free  energy   TOTEN  =     -1902.93850820 eV

  energy  without entropy=    -1902.93850820  energy(sigma->0) =    -1902.93850820

 stress matrix after NEB project (eV)
    -33.31646     -0.14666      0.11708
     -0.14666    -33.51755     -0.40329
      0.11708     -0.40329    -25.51417
  FORCES: max atom, RMS     0.044496    0.014670
  FORCE total and by dimension    0.245045    0.042115
  Stress total and by dimension   53.710156   33.517549

 reached required accuracy - stopping structural energy minimisation