 vasp.5.4.4.18Apr17-6-g9f103f2a35 (build Oct 20 2021 08:33:53) complex
 executed on             LinuxGNU date 2024.04.02  17:56:14

 INCAR:
 POTCAR:    PAW_PBE C 08Apr2002
 POTCAR:    PAW_PBE H 15Jun2001
 POTCAR:    PAW_PBE O 08Apr2002
 POTCAR:    PAW_PBE Si 05Jan2001
 POTCAR:    PAW_PBE W 08Apr2002
 POTCAR:    PAW_PBE C 08Apr2002
   VRHFIN =C: s2p2

   TITEL  = PAW_PBE C 08Apr2002
   POMASS =   12.011; ZVAL   =    4.000    mass and valenz
   ENMAX  =  400.000; ENMIN  =  300.000 eV

 POTCAR:    PAW_PBE H 15Jun2001
   VRHFIN =H: ultrasoft test

   TITEL  = PAW_PBE H 15Jun2001
   POMASS =    1.000; ZVAL   =    1.000    mass and valenz
   ENMAX  =  250.000; ENMIN  =  200.000 eV

 POTCAR:    PAW_PBE O 08Apr2002
   VRHFIN =O: s2p4

[...]

 POTCAR:    PAW_PBE Si 05Jan2001
   VRHFIN =Si: s2p2

   TITEL  = PAW_PBE Si 05Jan2001
   POMASS =   28.085; ZVAL   =    4.000    mass and valenz
   ENMAX  =  245.345; ENMIN  =  184.009 eV

 POTCAR:    PAW_PBE W 08Apr2002
   VRHFIN =W : 6s5d

   TITEL  = PAW_PBE W 08Apr2002
   POMASS =  183.850; ZVAL   =    6.000    mass and valenz
   ENMAX  =  223.057; ENMIN  =  167.293 eV

 Optimization of the real space projectors (new method)

 maximal supplied QI-value         = 25.13
 optimisation between [QCUT,QGAM] = [ 11.31, 22.87] = [ 35.82,146.48] Ry
 Optimized for a Real-space Cutoff    1.00 Angstroem

   l    n(q)    QCUT    max X(q) W(low)/X(q) W(high)/X(q)  e(spline)
   0      7    11.310   115.676    0.43E-03    0.13E-02    0.19E-06
   0      7    11.310    87.132    0.43E-03    0.13E-02    0.18E-06
   1      6    11.310     4.429    0.42E-03    0.74E-03    0.11E-06
   1      6    11.310     2.733    0.34E-03    0.55E-03    0.92E-07
 Optimization of the real space projectors (new method)

[...]

   l    n(q)    QCUT    max X(q) W(low)/X(q) W(high)/X(q)  e(spline)
   0      8    11.310   159.560    0.27E-03    0.30E-03    0.39E-07
   0      8    11.310   115.863    0.27E-03    0.30E-03    0.38E-07
   1      7    11.310    88.339    0.28E-03    0.28E-03    0.77E-07
   1      7    11.310    48.592    0.27E-03    0.27E-03    0.74E-07
 Optimization of the real space projectors (new method)

 maximal supplied QI-value         = 13.61
 optimisation between [QCUT,QGAM] = [ 11.43, 22.86] = [ 36.58,146.31] Ry
 Optimized for a Real-space Cutoff    1.56 Angstroem

   l    n(q)    QCUT    max X(q) W(low)/X(q) W(high)/X(q)  e(spline)
   2     10    11.429   130.855    0.22E-03    0.64E-03    0.11E-05
   2     10    11.429   114.007    0.22E-03    0.64E-03    0.11E-05
   0     11    11.429    84.709    0.39E-04    0.67E-04    0.23E-06
   0     11    11.429    49.163    0.35E-04    0.62E-04    0.21E-06
   1     10    11.429    15.765    0.84E-04    0.15E-03    0.24E-06
   1     10    11.429    10.638    0.58E-04    0.12E-03    0.19E-06

  PAW_PBE C 08Apr2002                   :
  PAW_PBE H 15Jun2001                   :
  PAW_PBE O 08Apr2002                   :
  PAW_PBE Si 05Jan2001                  :
  PAW_PBE W 08Apr2002                   :

 POSCAR:  C  H  O Si  W
  positions in direct lattice
  velocities in cartesian coordinates
 exchange correlation table for  LEXCH =        9
   RHO(1)=    0.500       N(1)  =     2000
   RHO(2)=  100.500       N(2)  =     4000

 VTST: version 3.2, (02/03/18)

 CHAIN: initializing optimizer

 OPT: Using Conjugate-Gradient optimizer
 OPT: CG, Init
 OPT: CG, FDSTEP      0.005000
 OPT: CG, MAXMOVE      0.200000

 CHAIN: Read ICHAIN            2

 POSCAR:  C  H  O Si  W
  positions in direct lattice
  velocities in cartesian coordinates
 CHAIN: Running the Dimer method

 Dimer: -----------------
 Dimer: Input Parameters
 Dimer:   Seed      0
 Dimer: RotMax      4
 Dimer:     dR      0.005000
 Dimer:  FNMax      1.000000
 Dimer:  FNMin      0.010000
 Dimer: -----------------

 ion  position               nearest neighbor table
   1  0.551  0.534  0.789-  47 1.09  48 1.09   2 1.42
   2  0.567  0.516  0.740-  50 1.10  49 1.19   1 1.42 270 2.04
   3  0.761  0.104  0.651- 125 0.97
   4  0.926  0.279  0.356-  73 0.98
   5  0.793  0.207  0.373- 108 0.97
   6  0.975  0.944  0.325- 117 0.97
   7  0.626  0.963  0.375- 119 0.98
   8  0.821  0.995  0.369- 137 0.97
   9  0.750  0.141  0.458- 175 0.98
  10  0.915  0.249  0.509- 180 0.97
  11  0.583  0.304  0.306- 185 0.97
  12  0.891  0.335  0.616-  91 0.98
  13  0.588  0.359  0.615- 136 0.97
  14  0.593  0.871  0.578- 178 0.99
  15  0.034  0.338  0.652- 184 0.97
  16  0.935  0.420  0.454- 173 0.98
  17  0.746  0.530  0.422-  87 1.00
  18  0.798  0.382  0.635- 165 0.97
  19  0.591  0.569  0.378-  99 0.99
  20  0.718  0.646  0.383- 122 0.99
  21  0.841  0.542  0.420- 128 0.98
  22  0.005  0.604  0.358- 133 0.97
  23  0.828  0.712  0.468- 174 0.99
  24  0.876  0.599  0.722-  53 0.97
  25  0.520  0.986  0.422- 135 0.99
  26  0.223  0.980  0.393- 176 1.00
  27  0.216  0.238  0.319- 191 0.99
  28  0.158  0.330  0.279- 182 0.97
  29  0.342  0.156  0.331- 183 0.98
  30  0.223  0.046  0.323- 190 0.97
  31  0.511  0.826  0.547- 193 0.97
  32  0.373  0.236  0.648-  78 0.97
  33  0.244  0.093  0.599- 129 0.98
  34  0.315  0.487  0.442-  52 0.99
  35  0.409  0.439  0.406- 141 0.98
  36  0.398  0.793  0.389- 179 0.97
  37  0.244  0.655  0.294- 187 0.97
  38  0.312  0.418  0.369- 188 0.98
  39  0.405  0.584  0.339- 189 0.97
  40  0.139  0.488  0.352- 181 0.98
  41  0.593  0.698  0.352-  82 0.97
  42  0.469  0.861  0.444- 192 0.99
  43  0.122  0.323  0.612- 101 0.97
  44  0.072  0.666  0.646- 132 0.97
  45  0.240  0.387  0.683- 177 0.97
  46  0.247  0.816  0.669- 186 0.97
  47  0.526  0.497  0.812-   1 1.09
  48  0.570  0.582  0.807-   1 1.09
  49  0.573  0.454  0.726-   2 1.19 270 2.13
  50  0.599  0.551  0.721-   2 1.10
  51  0.369  0.648  0.439- 224 1.66 259 1.68
  52  0.347  0.504  0.420-  34 0.99 259 1.67
  53  0.861  0.566  0.697-  24 0.97 230 1.64
  54  0.349  0.959  0.530- 235 1.68 268 1.70
  55  0.033  0.932  0.529- 250 1.63 261 1.66
  56  0.636  0.079  0.489- 228 1.60 217 1.65
  57  0.069  0.052  0.395- 216 1.64 208 1.65
  58  0.452  0.130  0.421- 233 1.65 214 1.65
  59  0.806  0.214  0.483- 232 1.67 229 1.69
  60  0.973  0.182  0.599- 210 1.63 240 1.65
[...]
 212  0.214  0.476  0.510- 172 1.61 171 1.63 131 1.66 168 1.66 223 3.10 256 3.14
 213  0.915  0.756  0.496-  96 1.65 174 1.65  80 1.65  85 1.66 226 2.99 234 3.03
 214  0.521  0.110  0.426- 107 1.64  58 1.65 135 1.66 115 1.67 245 3.08 228 3.12
 215  0.419  0.170  0.589-  78 1.64 195 1.65  95 1.68 155 1.69 268 3.13 255 3.14
 216  0.083  0.139  0.407-  57 1.64 138 1.65  83 1.65 151 1.66 209 3.11 208 3.13 262 3.14
 217  0.702  0.045  0.487-  90 1.64 159 1.65  56 1.65 175 1.66 228 3.09 218 3.10 252 3.15
 218  0.665  0.898  0.437-  89 1.53 159 1.66 119 1.66 150 1.67 264 2.83 251 3.06 217 3.10
 219  0.650  0.504  0.430-  99 1.65 157 1.65  87 1.67  93 1.68 227 3.07
 220  0.198  0.912  0.464- 130 1.50 176 1.64 153 1.66 109 1.67 238 3.01 235 3.06 261 3.07
 221  0.214  0.366  0.604-  77 1.63 172 1.64 101 1.64 177 1.65
 222  0.674  0.814  0.595- 178 1.62 110 1.64  92 1.68 200 1.71 249 2.90
 223  0.217  0.642  0.539- 170 1.63 163 1.63 196 1.65 131 1.65 238 3.09 212 3.10 267 3.12
 224  0.369  0.735  0.459-  67 1.65  98 1.66  51 1.66 179 1.68
 225  0.797  0.889  0.596- 134 1.66  92 1.66 103 1.67 199 1.68 234 2.86 226 2.99 252 3.15
 226  0.880  0.912  0.512-  66 1.60  85 1.62 103 1.65 111 1.65 213 2.99 225 2.99 250 3.05 241 3.13

 227  0.576  0.574  0.512-  93 1.58  94 1.63 160 1.63 127 1.65 237 3.00 219 3.07 269 3.15 211 3.15

[...]

 266  0.287  0.210  0.459- 167 1.63 116 1.63  61 1.66 146 1.67 244 3.02 262 3.12
 267  0.088  0.626  0.568- 156 1.63 132 1.63 102 1.64 163 1.65 263 3.10 223 3.12 243 3.15
 268  0.353  0.020  0.578- 155 1.63  63 1.66 202 1.69  54 1.70 235 2.38 254 2.75 215 3.13
 269  0.486  0.482  0.572- 127 1.64  71 1.67 121 1.68  79 1.68 246 2.94 227 3.15
 270  0.497  0.500  0.696- 204 1.71 118 1.97  71 1.98   2 2.04  49 2.13 246 3.11

  LATTYP: Found a simple orthorhombic cell.
 ALAT       =    18.1212369514
 B/A-ratio  =     1.2919258579
 C/A-ratio  =     1.4835282260

  Lattice vectors:

 A1 = (   0.0000000000, -18.1212369514,   0.0000000000)
 A2 = ( -23.4112945954,   0.0000000000,   0.0000000000)
 A3 = (   0.0000000000,   0.0000000000, -26.8833665073)

Analysis of symmetry for initial positions (statically):
 Subroutine PRICEL returns:
 Original cell was already a primitive cell.

 Routine SETGRP: Setting up the symmetry group for a
 simple orthorhombic supercell.

 Subroutine GETGRP returns: Found  1 space group operations
 (whereof  1 operations were pure point group operations)
 out of a pool of  8 trial point group operations.

The static configuration has the point symmetry C_1 .

Analysis of symmetry for dynamics (positions and initial velocities):
 Subroutine PRICEL returns:
 Original cell was already a primitive cell.

[...]

The dynamic configuration has the point symmetry C_1 .

Analysis of constrained symmetry for selective dynamics:
 Subroutine PRICEL returns:
 Original cell was already a primitive cell.

 Routine SETGRP: Setting up the symmetry group for a
 simple orthorhombic supercell.

 Subroutine GETGRP returns: Found  1 space group operations
 (whereof  1 operations were pure point group operations)
 out of a pool of  8 trial point group operations.

The constrained configuration has the point symmetry C_1 .

 Subroutine INISYM returns: Found  1 space group operations
 (whereof  1 operations are pure point group operations),
 and found     1 'primitive' translations

 KPOINTS: KPOINTS created by Atomic Simulation Env

Automatic generation of k-mesh.
Space group operators:
 irot       det(A)        alpha          n_x          n_y          n_z        tau_x        tau_y        tau_z
    1     1.000000     0.000001     1.000000     0.000000     0.000000     0.000000     0.000000     0.000000

 Subroutine IBZKPT returns following result:

 Found      5 irreducible k-points:

 Following reciprocal coordinates:
            Coordinates               Weight
  0.000000  0.000000  0.000000      1.000000
  0.333333  0.000000  0.000000      2.000000
  0.000000  0.333333  0.000000      2.000000
  0.333333  0.333333  0.000000      2.000000
 -0.333333  0.333333  0.000000      2.000000

 Following cartesian coordinates:
            Coordinates               Weight
  0.000000  0.000000  0.000000      1.000000
  0.014238  0.000000  0.000000      2.000000
  0.000000  0.018395  0.000000      2.000000
  0.014238  0.018395  0.000000      2.000000
 -0.014238  0.018395  0.000000      2.000000

 SYSTEM =  unknown system
 POSCAR =   C  H  O Si  W

 Startparameter for this run:
   NWRITE =      2    write-flag & timer
   PREC   = normal    normal or accurate (medium, high low for compatibility)
   ISTART =      0    job   : 0-new  1-cont  2-samecut
   ICHARG =      2    charge: 1-file 2-atom 10-const
   ISPIN  =      1    spin polarized calculation?
   LNONCOLLINEAR =      F non collinear calculations
   LSORBIT =      F    spin-orbit coupling
   INIWAV =      1    electr: 0-lowe 1-rand  2-diag
   LASPH  =      T    aspherical Exc in radial PAW
   METAGGA=      F    non-selfconsistent MetaGGA calc.

 Electronic Relaxation 1
[...]
   0.327E+03 -.223E+03 -.117E+03   -.739E-12 0.995E-13 -.114E-12   -.327E+03 0.224E+03 0.116E+03   0.934E-05 -.450E-04 -.155E-02

 POSITION                                       TOTAL-FORCE (eV/Angst)
     12.91110      9.67223     21.21624        -0.028140     -0.006686     -0.009221
     13.26558      9.34511     19.88284         0.013779     -0.034289     -0.002252
     17.80623      1.87987     17.50186         0.003510     -0.001694     -0.005997
     21.68887      5.04983      9.57948         0.101736      0.072241     -0.026062
     18.57311      3.75615     10.03977         0.038110      0.113039      0.045852
     22.81522     17.09936      8.74523         0.109036      0.055797      0.029536
     14.64921     17.45932     10.08748         0.054519     -0.005474     -0.058585
     19.20987     18.03075      9.91976         0.120637      0.023349     -0.000605
     17.55831      2.55833     12.31361        -0.108637     -0.219698     -0.130900
     21.43184      4.52059     13.68597         0.000794     -0.000485      0.001524
     13.66032      5.51363      8.22435        -0.100613     -0.129083      0.042318
     20.86978      6.06424     16.56004        -0.001432      0.000463     -0.001452
     13.75707      6.49694     16.53092         0.003825      0.001805      0.000972
     13.89251     15.78158     15.53851         0.003547      0.001080      0.002239
      0.79050      6.12000     17.53287         0.004772      0.006570      0.006177
     21.89589      7.60212     12.20778        -0.088468      0.132946      0.070320
     17.46807      9.60991     11.35790        -0.322285      0.160225     -0.037224
     18.68510      6.92941     17.06895         0.006095     -0.000551     -0.005644
     13.83846     10.30524     10.16285         0.096988     -0.184827      0.062963
     16.81947     11.70510     10.30871        -0.029018      0.241084     -0.018910
     19.69248      9.82944     11.28016        -0.106116     -0.102085      0.013266
      0.11154     10.94157      9.61829         0.110877     -0.009238     -0.029983
     19.39295     12.90878     12.57986         0.232747     -0.039580     -0.053751
     20.51097     10.84914     19.40420        -0.005679     -0.018917     -0.014815
     12.17365     17.85965     11.33680         0.012966      0.129017     -0.097765
      5.22293     17.76162     10.57067        -0.010452     -0.356194      0.120453
      5.06559      4.31016      8.58199         0.179608     -0.200161      0.070484
      3.68730      5.97650      7.50000         0.014830     -0.079911      0.118613
      7.99605      2.81941      8.89229         0.085850     -0.091149      0.065364
      5.21407      0.82921      8.67630         0.004038      0.017162      0.150513
     11.96568     14.96704     14.69757        -0.000011     -0.000847      0.003780
      8.72400      4.28508     17.40864         0.000679     -0.004558     -0.002317
      5.70224      1.68745     16.08978        -0.000105     -0.003606      0.002690
      7.38348      8.82752     11.89413         0.234096      0.095911     -0.171279
      9.57419      7.95042     10.90633         0.119706     -0.108820     -0.117766
      9.32939     14.37220     10.45190         0.056452      0.001060      0.128126
      5.71709     11.87720      7.91250        -0.104833     -0.017749      0.040751
      7.29827      7.58330      9.92689        -0.164458     -0.091809     -0.010483
      9.49268     10.58787      9.10862        -0.110272      0.037753     -0.004304
      3.26254      8.84269      9.46105        -0.024357     -0.205342     -0.120905
     13.88920     12.64839      9.47364        -0.128116     -0.097221      0.165052
     10.98006     15.61013     11.93160         0.311497      0.330450      0.161429
      2.84765      5.85376     16.44452         0.009049      0.011879      0.004705
      1.68547     12.06099     17.35430        -0.000527     -0.009618     -0.005205
      5.61256      7.01948     18.35861        -0.002573     -0.000308     -0.001374
      5.77586     14.78576     17.99257         0.000436      0.007443      0.007354
     12.30519      9.00407     21.82546         0.005511     -0.018416     -0.006408
     13.35176     10.55255     21.68325        -0.013765     -0.021549      0.001500
     13.42013      8.22174     19.51547         0.022471     -0.002862      0.021884
     14.01190      9.97961     19.37587         0.006825     -0.009306      0.018622
      8.63740     11.74900     11.80180        -0.232276      0.118549     -0.205814
      8.11940      9.13372     11.30145        -0.093747      0.604560      0.029622
     20.15014     10.25509     18.72879         0.015360      0.021334      0.040608
      8.16968     17.37925     14.24881        -0.006511      0.000811     -0.014385
      0.78190     16.89322     14.21151        -0.001279      0.002691     -0.013323
     14.89791      1.42920     13.15609         2.329807     -0.966418     -0.114140
      1.60710      0.94711     10.62191        -0.310088      0.487997      0.117345
     10.57955      2.34783     11.30707         0.052779      0.073150     -0.128390
     18.86679      3.87161     12.98914         0.536548     -0.039428     -0.202414
     22.78533      3.28965     16.09874        -0.034569     -0.021026      0.006517
[...]
      5.71814      6.71222     11.31648         0.019084     -0.125601     -0.116625
     15.41693      5.98005     12.10687        -0.152408     -0.464810     -0.834591
     10.77084      5.76988     14.22046         0.001302      0.013183      0.005413
      7.89661     10.69049     10.72869        -0.122507     -0.070099     -0.054804
     18.80413      8.63235     15.58593        -0.002645      0.002862      0.007350
      1.62029     16.28844     12.91761        -0.327848      6.420863     -0.531425
      4.96103      2.61769     10.04353        -0.069301     -0.043351      0.056105
      1.83153      8.95162     13.29887         0.029506     -0.137005     -0.320052
     13.05344     15.44546     12.76235       -22.327499    -15.846639      4.725921
     16.81847     10.59530     16.38831         0.006454      0.000532      0.000589
      6.71066      3.80730     12.34244        -0.215600     -0.004824     -0.759889
      2.06155     11.33534     15.26010        -0.010803      0.010087     -0.004347
      8.27382      0.35691     15.53513         0.019191      0.003205      0.002576
     11.36695      8.73654     15.36409        -0.004470     -0.003970     -0.003953
     11.63297      9.05547     18.70275         0.002679      0.003037      0.000808
    total drift:                                0.234309      0.569276     -0.082515

  FREE ENERGIE OF THE ION-ELECTRON SYSTEM (eV)
  free  energy   TOTEN  =     -1852.39276826 eV

  energy  without entropy=    -1852.38995221  energy(sigma->0) =    -1852.39136024

 Dimer: Init Mode:
 Dimer: MODECAR found
 Dimer: initial mode
   -2.7384492931E-01    8.3229181555E-02   -2.5427628827E-01
    1.9805003177E-01   -3.4960297719E-01   -2.1101714746E-01
   -8.7054090639E-04   -3.3430832185E-03    1.3022605618E-03
    0.0000000000E+00    0.0000000000E+00    0.0000000000E+00
    0.0000000000E+00    0.0000000000E+00    0.0000000000E+00
    0.0000000000E+00    0.0000000000E+00    0.0000000000E+00
    0.0000000000E+00    0.0000000000E+00    0.0000000000E+00
    0.0000000000E+00    0.0000000000E+00    0.0000000000E+00
    0.0000000000E+00    0.0000000000E+00    0.0000000000E+00
   -7.2881144291E-04   -3.6257989176E-05    1.7076126403E-03
    0.0000000000E+00    0.0000000000E+00    0.0000000000E+00
   -8.8108704598E-04    9.7449579942E-05    1.3137365259E-03
    1.0665085163E-02   -5.9561232596E-03   -7.5974781649E-03
   -1.3954905287E-03   -3.3976897761E-03    1.2008758848E-03
    5.8641564174E-03   -3.9480344880E-03    2.9828388826E-03
    0.0000000000E+00    0.0000000000E+00    0.0000000000E+00
    0.0000000000E+00    0.0000000000E+00    0.0000000000E+00
   -1.1774389741E-03   -1.9399506111E-03    3.2513830369E-03
    0.0000000000E+00    0.0000000000E+00    0.0000000000E+00
    0.0000000000E+00    0.0000000000E+00    0.0000000000E+00
    0.0000000000E+00    0.0000000000E+00    0.0000000000E+00
    0.0000000000E+00    0.0000000000E+00    0.0000000000E+00
    0.0000000000E+00    0.0000000000E+00    0.0000000000E+00
    8.9361060955E-03    1.4448702802E-02    2.0950538749E-02
    0.0000000000E+00    0.0000000000E+00    0.0000000000E+00
    0.0000000000E+00    0.0000000000E+00    0.0000000000E+00
    0.0000000000E+00    0.0000000000E+00    0.0000000000E+00
    0.0000000000E+00    0.0000000000E+00    0.0000000000E+00
    0.0000000000E+00    0.0000000000E+00    0.0000000000E+00
    0.0000000000E+00    0.0000000000E+00    0.0000000000E+00
    3.4829981748E-03    1.3236618463E-03   -2.2391663095E-03
   -3.8988069408E-03   -1.3703437958E-03    2.2042746877E-03
    5.4779521812E-04   -2.2487983829E-03    1.4497417152E-03
    0.0000000000E+00    0.0000000000E+00    0.0000000000E+00
    0.0000000000E+00    0.0000000000E+00    0.0000000000E+00
    0.0000000000E+00    0.0000000000E+00    0.0000000000E+00
    0.0000000000E+00    0.0000000000E+00    0.0000000000E+00
    0.0000000000E+00    0.0000000000E+00    0.0000000000E+00
    0.0000000000E+00    0.0000000000E+00    0.0000000000E+00
    0.0000000000E+00    0.0000000000E+00    0.0000000000E+00
    0.0000000000E+00    0.0000000000E+00    0.0000000000E+00
    0.0000000000E+00    0.0000000000E+00    0.0000000000E+00
   -2.2978462447E-03   -2.4166100786E-03    1.6378068872E-03
   -1.5844421155E-03   -3.5679660750E-03    1.8023710866E-03
   -8.0083083605E-04   -1.4997505852E-03    2.2079677131E-03
   -8.4376708843E-04   -3.1887036752E-03    3.2924966688E-03
    5.8136944897E-02   -7.1050763467E-02   -9.5209145991E-02
   -2.8217078363E-01    5.6347273180E-02   -2.3993041497E-01
    3.6981274664E-01   -1.2482003855E-01    2.9525702866E-01
    4.8688414070E-02   -1.2264917400E-01   -7.1029221475E-02
    0.0000000000E+00    0.0000000000E+00    0.0000000000E+00
    0.0000000000E+00    0.0000000000E+00    0.0000000000E+00
    2.9016577530E-02    2.4507155196E-02    9.3766670888E-03
    7.2267139303E-03   -7.5782800607E-03   -8.5062490600E-03
   -2.1413861141E-03   -1.5460289151E-03    5.2433743295E-04
    0.0000000000E+00    0.0000000000E+00    0.0000000000E+00
    0.0000000000E+00    0.0000000000E+00    0.0000000000E+00
    0.0000000000E+00    0.0000000000E+00    0.0000000000E+00
    0.0000000000E+00    0.0000000000E+00    0.0000000000E+00
   -6.4022441450E-02   -3.9912614687E-02   -2.8782887110E-02
[...]
    0.0000000000E+00    0.0000000000E+00    0.0000000000E+00
    0.0000000000E+00    0.0000000000E+00    0.0000000000E+00
    8.0821038278E-03    1.5920005403E-02    1.2589327311E-02
    0.0000000000E+00    0.0000000000E+00    0.0000000000E+00
   -4.3630238058E-03   -2.0690317515E-03   -4.2722745597E-03
    0.0000000000E+00    0.0000000000E+00    0.0000000000E+00
    0.0000000000E+00    0.0000000000E+00    0.0000000000E+00
    0.0000000000E+00    0.0000000000E+00    0.0000000000E+00
    0.0000000000E+00    0.0000000000E+00    0.0000000000E+00
    1.5018971786E-03   -1.7544164338E-03    2.8318795021E-04
    0.0000000000E+00    0.0000000000E+00    0.0000000000E+00
   -1.4518224617E-03   -1.4155674113E-03    1.9836534335E-03
    3.4659706417E-02    2.3702370720E-04   -1.5294509386E-02
   -1.5238375186E-02    5.4062821828E-02    3.5987474192E-03
   -2.7843915251E-02    1.6107962696E-01    1.1023030922E-01
 Dimer: -----------------
 Dimer: Itr    1 Rot    0

 Dimer: Central Point
 Dimer: F0      0.190115

 Dimer: Projection
 Dimer: N*F0   6.6644150714098682E-002
 Dimer: F0sq   3.6143730343716082E-002
 Dimer: Feffsq    4.4414428244035015E-003
 Dimer: Feff
    1.8250162741E-02   -5.5467381194E-03    1.6946027278E-02
   -1.3198876166E-02    2.3298993502E-02    1.4063058579E-02
    5.8016459368E-05    2.2279694186E-04   -8.6788049149E-05
   -0.0000000000E+00   -0.0000000000E+00   -0.0000000000E+00
   -0.0000000000E+00   -0.0000000000E+00   -0.0000000000E+00
   -0.0000000000E+00   -0.0000000000E+00   -0.0000000000E+00
   -0.0000000000E+00   -0.0000000000E+00   -0.0000000000E+00
   -0.0000000000E+00   -0.0000000000E+00   -0.0000000000E+00
   -0.0000000000E+00   -0.0000000000E+00   -0.0000000000E+00
    4.8571019643E-05    2.4163828952E-06   -1.1380239416E-04
   -0.0000000000E+00   -0.0000000000E+00   -0.0000000000E+00
    5.8719297884E-05   -6.4944444927E-06   -8.7552855031E-05
   -7.1076554298E-04    3.9694077618E-04    5.0632747987E-04
    9.3001281115E-05    2.2643614952E-04   -8.0031353455E-05
   -3.9081172409E-04    2.6311340544E-04   -1.9878876405E-04
   -0.0000000000E+00   -0.0000000000E+00   -0.0000000000E+00
   -0.0000000000E+00   -0.0000000000E+00   -0.0000000000E+00
    7.8469420446E-05    1.2928636090E-04   -2.1668566114E-04
   -0.0000000000E+00   -0.0000000000E+00   -0.0000000000E+00
   -0.0000000000E+00   -0.0000000000E+00   -0.0000000000E+00
   -0.0000000000E+00   -0.0000000000E+00   -0.0000000000E+00
   -0.0000000000E+00   -0.0000000000E+00   -0.0000000000E+00
   -0.0000000000E+00   -0.0000000000E+00   -0.0000000000E+00
   -5.9553920142E-04   -9.6292152716E-04   -1.3962308619E-03
   -0.0000000000E+00   -0.0000000000E+00   -0.0000000000E+00
   -0.0000000000E+00   -0.0000000000E+00   -0.0000000000E+00
   -0.0000000000E+00   -0.0000000000E+00   -0.0000000000E+00
   -0.0000000000E+00   -0.0000000000E+00   -0.0000000000E+00
   -0.0000000000E+00   -0.0000000000E+00   -0.0000000000E+00
   -0.0000000000E+00   -0.0000000000E+00   -0.0000000000E+00
   -2.3212145530E-04   -8.8214319579E-05    1.4922733700E-04
    2.5983267737E-04    9.1325398457E-05   -1.4690201450E-04
   -3.6507347077E-05    1.4986925836E-04   -9.6616805364E-05
   -0.0000000000E+00   -0.0000000000E+00   -0.0000000000E+00
   -0.0000000000E+00   -0.0000000000E+00   -0.0000000000E+00
   -0.0000000000E+00   -0.0000000000E+00   -0.0000000000E+00
   -0.0000000000E+00   -0.0000000000E+00   -0.0000000000E+00
   -0.0000000000E+00   -0.0000000000E+00   -0.0000000000E+00
   -0.0000000000E+00   -0.0000000000E+00   -0.0000000000E+00
   -0.0000000000E+00   -0.0000000000E+00   -0.0000000000E+00
   -0.0000000000E+00   -0.0000000000E+00   -0.0000000000E+00
   -0.0000000000E+00   -0.0000000000E+00   -0.0000000000E+00
    1.5313801145E-04    1.6105292630E-04   -1.0915024903E-04
    1.0559379914E-04    2.3778406884E-04   -1.2011749034E-04
    5.3370690934E-05    9.9949604033E-05   -1.4714813304E-04
    5.6232141009E-05    2.1250844831E-04   -2.1942564422E-04
   -3.8744873178E-03    4.7351177888E-03    6.3451326748E-03
    1.8805032231E-02   -3.7552161661E-03    1.5989958736E-02
   -2.4645856423E-02    8.3185254613E-03   -1.9677153917E-02
   -3.2447980053E-03    8.1738500370E-03    4.7336821411E-03
   -0.0000000000E+00   -0.0000000000E+00   -0.0000000000E+00
   -0.0000000000E+00   -0.0000000000E+00   -0.0000000000E+00
   -1.9337851661E-03   -1.6332585445E-03   -6.2490001466E-04
   -4.8161821234E-04    5.0504803852E-04    5.6689174437E-04
    1.4271085892E-04    1.0303378403E-04   -3.4944022907E-05
   -0.0000000000E+00   -0.0000000000E+00   -0.0000000000E+00
   -0.0000000000E+00   -0.0000000000E+00   -0.0000000000E+00
   -0.0000000000E+00   -0.0000000000E+00   -0.0000000000E+00
   -0.0000000000E+00   -0.0000000000E+00   -0.0000000000E+00
    4.2667212371E-03    2.6599423086E-03    1.9182110665E-03
[...]
   -0.0000000000E+00   -0.0000000000E+00   -0.0000000000E+00
   -0.0000000000E+00   -0.0000000000E+00   -0.0000000000E+00
   -5.3862494559E-04   -1.0609752394E-03   -8.3900502670E-04
   -0.0000000000E+00   -0.0000000000E+00   -0.0000000000E+00
    2.9077001608E-04    1.3788886388E-04    2.8472210965E-04
   -0.0000000000E+00   -0.0000000000E+00   -0.0000000000E+00
   -0.0000000000E+00   -0.0000000000E+00   -0.0000000000E+00
   -0.0000000000E+00   -0.0000000000E+00   -0.0000000000E+00
   -0.0000000000E+00   -0.0000000000E+00   -0.0000000000E+00
   -1.0009266193E-04    1.1692159323E-04   -1.8872820434E-05
   -0.0000000000E+00   -0.0000000000E+00   -0.0000000000E+00
    9.6755474947E-05    9.4339287904E-05   -1.3219889839E-04
   -2.3098666982E-03   -1.5796243665E-05    1.0192895886E-03
    1.0155485725E-03   -3.6029708459E-03   -2.3983546539E-04
    1.8556340845E-03   -1.0735014936E-02   -7.3462053409E-03

 stress matrix after NEB project (eV)
    -32.44348      0.12044      0.27266
      0.12044    -33.02983     -0.07683
      0.27266     -0.07683    -24.82330
  FORCES: max atom, RMS     0.048374    0.011570
  FORCE total and by dimension    0.190115    0.040608
  Stress total and by dimension   52.535080   33.029830
 OPT: skip step - force has converged

 reached required accuracy - stopping structural energy minimisation