 vasp.5.4.4.18Apr17-6-g9f103f2a35 (build Oct 20 2021 08:33:53) complex
 executed on             LinuxGNU date 2025.03.08  21:53:45

 INCAR:
 POTCAR:    PAW_PBE C 08Apr2002
 POTCAR:    PAW_PBE H 15Jun2001
 POTCAR:    PAW_PBE O 08Apr2002
 POTCAR:    PAW_PBE Si 05Jan2001
 POTCAR:    PAW_PBE W 08Apr2002
 POTCAR:    PAW_PBE C 08Apr2002
   VRHFIN =C: s2p2

   TITEL  = PAW_PBE C 08Apr2002
   POMASS =   12.011; ZVAL   =    4.000    mass and valenz
   ENMAX  =  400.000; ENMIN  =  300.000 eV

 POTCAR:    PAW_PBE H 15Jun2001
   VRHFIN =H: ultrasoft test

   TITEL  = PAW_PBE H 15Jun2001
   POMASS =    1.000; ZVAL   =    1.000    mass and valenz
   ENMAX  =  250.000; ENMIN  =  200.000 eV

 POTCAR:    PAW_PBE O 08Apr2002
   VRHFIN =O: s2p4

[...]

 POTCAR:    PAW_PBE Si 05Jan2001
   VRHFIN =Si: s2p2

   TITEL  = PAW_PBE Si 05Jan2001
   POMASS =   28.085; ZVAL   =    4.000    mass and valenz
   ENMAX  =  245.345; ENMIN  =  184.009 eV

 POTCAR:    PAW_PBE W 08Apr2002
   VRHFIN =W : 6s5d

   TITEL  = PAW_PBE W 08Apr2002
   POMASS =  183.850; ZVAL   =    6.000    mass and valenz
   ENMAX  =  223.057; ENMIN  =  167.293 eV

 Optimization of the real space projectors (new method)

 maximal supplied QI-value         = 25.13
 optimisation between [QCUT,QGAM] = [ 11.31, 22.87] = [ 35.82,146.48] Ry
 Optimized for a Real-space Cutoff    1.00 Angstroem

   l    n(q)    QCUT    max X(q) W(low)/X(q) W(high)/X(q)  e(spline)
   0      7    11.310   115.676    0.43E-03    0.13E-02    0.19E-06
   0      7    11.310    87.132    0.43E-03    0.13E-02    0.18E-06
   1      6    11.310     4.429    0.42E-03    0.74E-03    0.11E-06
   1      6    11.310     2.733    0.34E-03    0.55E-03    0.92E-07
 Optimization of the real space projectors (new method)

[...]

   l    n(q)    QCUT    max X(q) W(low)/X(q) W(high)/X(q)  e(spline)
   0      8    11.310   159.560    0.27E-03    0.30E-03    0.39E-07
   0      8    11.310   115.863    0.27E-03    0.30E-03    0.38E-07
   1      7    11.310    88.339    0.28E-03    0.28E-03    0.77E-07
   1      7    11.310    48.592    0.27E-03    0.27E-03    0.74E-07
 Optimization of the real space projectors (new method)

 maximal supplied QI-value         = 13.61
 optimisation between [QCUT,QGAM] = [ 11.43, 22.86] = [ 36.58,146.31] Ry
 Optimized for a Real-space Cutoff    1.56 Angstroem

   l    n(q)    QCUT    max X(q) W(low)/X(q) W(high)/X(q)  e(spline)
   2     10    11.429   130.855    0.22E-03    0.64E-03    0.11E-05
   2     10    11.429   114.007    0.22E-03    0.64E-03    0.11E-05
   0     11    11.429    84.709    0.39E-04    0.67E-04    0.23E-06
   0     11    11.429    49.163    0.35E-04    0.62E-04    0.21E-06
   1     10    11.429    15.765    0.84E-04    0.15E-03    0.24E-06
   1     10    11.429    10.638    0.58E-04    0.12E-03    0.19E-06

  PAW_PBE C 08Apr2002                   :
  PAW_PBE H 15Jun2001                   :
  PAW_PBE O 08Apr2002                   :
  PAW_PBE Si 05Jan2001                  :
  PAW_PBE W 08Apr2002                   :

 POSCAR:  C  H  O Si  W
  positions in direct lattice
  velocities in cartesian coordinates
 exchange correlation table for  LEXCH =        9
   RHO(1)=    0.500       N(1)  =     2000
   RHO(2)=  100.500       N(2)  =     4000

 VTST: version 3.2, (02/03/18)

 CHAIN: initializing optimizer

 OPT: Using Quick-Min optimizer
 OPT: QM, Init
 OPT: QM, MAXMOVE       0.200000
 OPT: QM, TIMESTEP      0.100000

 CHAIN: Read ICHAIN            0
 CHAIN: Running the NEB
 NEB:          SPRING     -5.000000
 NEB:          LCLIMB      T
 NEB:     LTANGENTOLD      F
 NEB:           LDNEB      F
 NEB:        LDNEBORG      F
 NEB:        LNEBCELL      F
 NEB:          EFIRST      0.000000
 NEB:           ELAST      0.000000

 POSCAR:  C  H  O Si  W
  positions in cartesian coordinates

 POSCAR:  C  H  O Si  W
  positions in cartesian coordinates

 ion  position               nearest neighbor table
   1  0.517  0.483  0.748-  50 1.09  51 1.10 279 1.93
   2  0.422  0.519  0.774-  52 1.09   3 1.41   4 1.51 279 2.55
   3  0.382  0.507  0.736-  53 1.09   2 1.41   5 1.52 279 2.35
   4  0.436  0.596  0.792-  54 1.10  55 1.10  56 1.10   2 1.51
   5  0.340  0.443  0.737-  57 1.10  58 1.10  59 1.10   3 1.52
   6  0.761  0.103  0.651- 134 0.97
   7  0.926  0.279  0.356-  82 0.98
   8  0.793  0.207  0.373- 117 0.97
   9  0.975  0.944  0.325- 126 0.97
  10  0.626  0.963  0.375- 128 0.98
  11  0.821  0.995  0.369- 146 0.97
  12  0.750  0.141  0.458- 184 0.98
  13  0.916  0.249  0.507- 189 0.97
  14  0.583  0.304  0.306- 194 0.97
  15  0.889  0.334  0.615- 100 0.98
  16  0.590  0.360  0.614- 145 0.97
  17  0.593  0.871  0.578- 187 0.99
  18  0.025  0.336  0.658- 193 0.97
  19  0.935  0.420  0.454- 182 0.98
  20  0.746  0.530  0.422-  96 1.00
  21  0.797  0.382  0.634- 174 0.97
  22  0.591  0.569  0.378- 108 0.99
  23  0.718  0.646  0.383- 131 0.99
  24  0.841  0.542  0.420- 137 0.98
  25  0.005  0.604  0.358- 142 0.97
  26  0.828  0.712  0.468- 183 0.99
  27  0.876  0.600  0.721-  62 0.97
  28  0.520  0.986  0.422- 144 0.99
  29  0.223  0.980  0.393- 185 1.00
  30  0.216  0.238  0.319- 200 0.99
  31  0.158  0.330  0.279- 191 0.97
  32  0.342  0.156  0.331- 192 0.98
  33  0.223  0.046  0.323- 199 0.97
  34  0.511  0.826  0.547- 202 0.97
  35  0.406  0.248  0.655-  87 0.97
  36  0.243  0.094  0.599- 138 0.98
  37  0.315  0.487  0.442-  61 0.99
  38  0.409  0.439  0.406- 150 0.98
  39  0.398  0.793  0.389- 188 0.97
  40  0.244  0.655  0.294- 196 0.97
  41  0.312  0.418  0.369- 197 0.98
  42  0.405  0.584  0.339- 198 0.97
  43  0.139  0.488  0.352- 190 0.98
  44  0.593  0.698  0.352-  91 0.97
  45  0.469  0.861  0.444- 201 0.99
  46  0.112  0.329  0.612- 110 0.97
  47  0.071  0.666  0.645- 141 0.97
  48  0.245  0.357  0.676- 186 0.97
  49  0.245  0.817  0.668- 195 0.97
  50  0.527  0.438  0.773-   1 1.09
  51  0.541  0.535  0.755-   1 1.10
  52  0.427  0.474  0.801-   2 1.09
  53  0.367  0.556  0.717-   3 1.09
  54  0.478  0.599  0.811-   4 1.10
  55  0.436  0.635  0.760-   4 1.10
  56  0.403  0.613  0.818-   4 1.10
  57  0.325  0.428  0.700-   5 1.10
  58  0.358  0.394  0.755-   5 1.10
  59  0.302  0.460  0.759-   5 1.10
  60  0.369  0.648  0.439- 233 1.66 268 1.68
[...]
 221  0.214  0.477  0.510- 181 1.62 180 1.63 140 1.66 177 1.66 232 3.09 265 3.14
 222  0.915  0.756  0.496- 105 1.65 183 1.65  89 1.65  94 1.66 235 2.99 243 3.03
 223  0.521  0.110  0.426- 116 1.64  67 1.65 144 1.66 124 1.67 254 3.08 237 3.12
 224  0.418  0.171  0.590-  87 1.64 204 1.66 104 1.68 164 1.68 264 3.15
 225  0.083  0.139  0.407-  66 1.64 147 1.65  92 1.65 160 1.66 218 3.11 217 3.13 271 3.14
 226  0.702  0.045  0.487-  99 1.64 168 1.65  65 1.65 184 1.66 237 3.09 227 3.10 261 3.15
 227  0.665  0.898  0.437-  98 1.53 168 1.66 128 1.66 159 1.67 273 2.83 260 3.06 226 3.10
 228  0.650  0.504  0.430- 108 1.65 166 1.65  96 1.67 102 1.68 236 3.07
 229  0.198  0.912  0.464- 139 1.50 185 1.64 162 1.66 118 1.67 247 3.01 244 3.07 270 3.07
 230  0.207  0.366  0.600-  86 1.63 181 1.63 110 1.64 186 1.65 253 3.14
 231  0.673  0.812  0.595- 187 1.62 119 1.64 101 1.68 209 1.71 258 2.90
 232  0.217  0.642  0.539- 179 1.63 172 1.63 205 1.65 140 1.65 247 3.09 221 3.09 276 3.12
 233  0.369  0.735  0.459-  76 1.65 107 1.66  60 1.66 188 1.68
 234  0.797  0.888  0.595- 143 1.66 101 1.66 112 1.67 208 1.68 243 2.85 235 3.00
 235  0.880  0.912  0.512-  75 1.60  94 1.62 112 1.65 120 1.66 222 2.99 234 3.00 259 3.05 250 3.14

 236  0.576  0.574  0.512- 102 1.58 169 1.62 103 1.63 136 1.65 246 3.01 228 3.07 278 3.14
 237  0.590  0.115  0.525-  65 1.60 124 1.60 161 1.62 151 1.65 264 2.85 226 3.09 248 3.12 223 3.12

[...]

 275  0.287  0.210  0.459- 176 1.63 125 1.63  70 1.66 155 1.67 253 3.03 271 3.12
 276  0.088  0.625  0.568- 165 1.63 141 1.64 111 1.64 172 1.65 272 3.09 232 3.12 252 3.15
 277  0.353  0.020  0.580- 164 1.63  72 1.66 211 1.69  63 1.70 244 2.38 263 2.74
 278  0.486  0.482  0.571- 136 1.64  80 1.65  88 1.68 130 1.68 255 2.92 236 3.14 279 3.27
 279  0.465  0.479  0.692- 213 1.74   1 1.93  80 1.99 127 2.02   3 2.35   2 2.55 255 3.26 278 3.27

  LATTYP: Found a simple orthorhombic cell.
 ALAT       =    18.1212369514
 B/A-ratio  =     1.2919258579
 C/A-ratio  =     1.4835282260

  Lattice vectors:

 A1 = (   0.0000000000, -18.1212369514,   0.0000000000)
 A2 = ( -23.4112945954,   0.0000000000,   0.0000000000)
 A3 = (   0.0000000000,   0.0000000000, -26.8833665073)

Analysis of symmetry for initial positions (statically):
 Subroutine PRICEL returns:
 Original cell was already a primitive cell.

 Routine SETGRP: Setting up the symmetry group for a
 simple orthorhombic supercell.

 Subroutine GETGRP returns: Found  1 space group operations
 (whereof  1 operations were pure point group operations)
 out of a pool of  8 trial point group operations.

The static configuration has the point symmetry C_1 .

Analysis of symmetry for dynamics (positions and initial velocities):
 Subroutine PRICEL returns:
 Original cell was already a primitive cell.

[...]

The dynamic configuration has the point symmetry C_1 .

Analysis of constrained symmetry for selective dynamics:
 Subroutine PRICEL returns:
 Original cell was already a primitive cell.

 Routine SETGRP: Setting up the symmetry group for a
 simple orthorhombic supercell.

 Subroutine GETGRP returns: Found  1 space group operations
 (whereof  1 operations were pure point group operations)
 out of a pool of  8 trial point group operations.

The constrained configuration has the point symmetry C_1 .

 Subroutine INISYM returns: Found  1 space group operations
 (whereof  1 operations are pure point group operations),
 and found     1 'primitive' translations

 KPOINTS: KPOINTS created by Atomic Simulation Env

Automatic generation of k-mesh.
Space group operators:
 irot       det(A)        alpha          n_x          n_y          n_z        tau_x        tau_y        tau_z
    1     1.000000     0.000000     1.000000     0.000000     0.000000     0.000000     0.000000     0.000000

 Subroutine IBZKPT returns following result:

 Found      5 irreducible k-points:

 Following reciprocal coordinates:
            Coordinates               Weight
  0.000000  0.000000  0.000000      1.000000
  0.333333  0.000000  0.000000      2.000000
  0.000000  0.333333  0.000000      2.000000
  0.333333  0.333333  0.000000      2.000000
 -0.333333  0.333333  0.000000      2.000000

 Following cartesian coordinates:
            Coordinates               Weight
  0.000000  0.000000  0.000000      1.000000
  0.014238  0.000000  0.000000      2.000000
  0.000000  0.018395  0.000000      2.000000
  0.014238  0.018395  0.000000      2.000000
 -0.014238  0.018395  0.000000      2.000000

 SYSTEM =  unknown system
 POSCAR =   C  H  O Si  W

 Startparameter for this run:
   NWRITE =      2    write-flag & timer
   PREC   = normal    normal or accurate (medium, high low for compatibility)
   ISTART =      0    job   : 0-new  1-cont  2-samecut
   ICHARG =      2    charge: 1-file 2-atom 10-const
   ISPIN  =      1    spin polarized calculation?
   LNONCOLLINEAR =      F non collinear calculations
   LSORBIT =      F    spin-orbit coupling
   INIWAV =      1    electr: 0-lowe 1-rand  2-diag
[...]
   0.192E+02 -.450E+02 0.181E+03   -.235E+02 0.507E+02 -.183E+03   0.441E+01 -.594E+01 0.228E+01   0.443E-04 -.474E-04 -.496E-04
   -.155E+01 -.364E+02 0.238E+03   0.207E+01 0.402E+02 -.246E+03   -.514E+00 -.386E+01 0.729E+01   0.118E-04 -.350E-04 -.520E-04
   0.439E+02 -.133E+02 0.192E+03   -.499E+02 0.167E+02 -.196E+03   0.618E+01 -.354E+01 0.405E+01   0.105E-04 -.540E-04 -.174E-04
   -.149E+01 0.499E+02 0.229E+03   0.850E+00 -.518E+02 -.237E+03   0.646E+00 0.182E+01 0.808E+01   0.317E-04 -.279E-04 -.397E-05
   0.652E+02 0.600E+01 -.668E+02   -.730E+02 -.630E+01 0.699E+02   0.771E+01 0.311E+00 -.304E+01   -.208E-03 -.252E-03 0.110E-03
   -.117E+02 -.699E+02 -.163E+03   0.136E+02 0.776E+02 0.166E+03   -.193E+01 -.773E+01 -.256E+01   -.120E-03 0.111E-03 -.334E-03
   0.155E+02 0.779E+02 -.104E+03   -.139E+02 -.859E+02 0.103E+03   -.159E+01 0.795E+01 0.119E+01   0.515E-04 -.186E-03 -.820E-03
   0.172E+02 0.172E+02 -.246E+01   -.226E+02 -.196E+02 0.690E+01   0.559E+01 0.252E+01 -.459E+01   -.688E-05 0.220E-04 -.685E-04
   0.275E+02 -.516E+02 0.548E+02   -.326E+02 0.559E+02 -.509E+02   0.525E+01 -.445E+01 -.402E+01   -.867E-04 0.138E-04 -.169E-03
   0.142E+02 -.269E+02 0.209E+03   -.163E+02 0.277E+02 -.217E+03   0.214E+01 -.795E+00 0.797E+01   -.188E-04 0.735E-04 0.291E-04
   -.764E+02 -.275E+02 0.198E+03   0.835E+02 0.285E+02 -.202E+03   -.723E+01 -.106E+01 0.394E+01   -.553E-04 0.202E-04 -.105E-04
   -.832E+02 -.365E+02 0.135E+03   0.902E+02 0.404E+02 -.135E+03   -.716E+01 -.403E+01 -.163E+00   -.583E-04 -.420E-04 -.127E-03
   -.102E+03 0.109E+02 0.155E+03   0.110E+03 -.128E+02 -.156E+03   -.796E+01 0.202E+01 0.105E+01   -.647E-04 0.640E-04 -.119E-03
   0.104E+01 -.696E+02 0.101E+03   0.259E+00 0.763E+02 -.970E+02   -.133E+01 -.693E+01 -.420E+01   -.254E-04 -.174E-05 -.100E-03
   -.331E+02 -.496E+02 0.218E+03   0.370E+02 0.540E+02 -.224E+03   -.406E+01 -.454E+01 0.558E+01   -.132E-04 0.503E-04 -.716E-04
   0.751E+02 0.220E+02 0.109E+03   -.810E+02 -.260E+02 -.112E+03   0.621E+01 0.437E+01 0.246E+01   -.816E-04 0.252E-05 0.644E-04
   0.490E+02 0.458E+02 -.159E+03   -.541E+02 -.514E+02 0.162E+03   0.509E+01 0.567E+01 -.331E+01   0.565E-03 -.445E-04 0.450E-04
   -.103E+02 -.733E+02 -.192E+03   0.122E+02 0.797E+02 0.197E+03   -.191E+01 -.633E+01 -.518E+01   -.188E-03 -.159E-03 0.383E-04
   -.158E+02 0.624E+02 -.196E+03   0.184E+02 -.684E+02 0.201E+03   -.266E+01 0.592E+01 -.530E+01   -.149E-03 0.404E-04 -.389E-03
   0.302E+02 -.799E+02 -.193E+03   -.304E+02 0.870E+02 0.197E+03   0.212E+00 -.710E+01 -.444E+01   -.208E-03 -.421E-03 -.323E-03
   -.404E+02 0.559E+02 -.161E+03   0.417E+02 -.602E+02 0.165E+03   -.120E+01 0.436E+01 -.349E+01   0.190E-04 0.114E-04 -.229E-03
   -.589E+02 -.353E+02 -.147E+03   0.617E+02 0.400E+02 0.148E+03   -.282E+01 -.476E+01 -.926E+00   0.466E-04 -.518E-04 -.251E-03
   -.180E+01 0.499E+02 -.173E+03   0.248E+01 -.542E+02 0.176E+03   -.692E+00 0.429E+01 -.385E+01   -.205E-03 0.877E-05 -.923E-04
   0.616E+02 -.547E+02 -.970E+02   -.634E+02 0.594E+02 0.942E+02   0.183E+01 -.473E+01 0.274E+01   -.121E-03 -.129E-03 -.126E-03
   -.524E+02 -.250E+02 -.150E+03   0.573E+02 0.254E+02 0.153E+03   -.492E+01 -.353E+00 -.261E+01   -.166E-03 0.328E-04 -.584E-04
   0.709E+01 -.697E+02 -.102E+03   -.712E+01 0.733E+02 0.982E+02   0.564E-01 -.366E+01 0.433E+01   -.624E-03 0.349E-04 -.480E-04
   0.457E+02 -.373E+02 -.152E+03   -.495E+02 0.389E+02 0.155E+03   0.381E+01 -.155E+01 -.354E+01   -.187E-03 -.285E-03 -.318E-04
   0.413E+02 0.208E+02 -.784E+02   -.430E+02 -.222E+02 0.732E+02   0.178E+01 0.142E+01 0.517E+01   -.362E-03 -.197E-04 -.139E-03
   0.965E+01 0.672E+02 -.154E+03   -.749E+01 -.718E+02 0.156E+03   -.224E+01 0.455E+01 -.236E+01   -.215E-03 0.196E-05 -.984E-04
   0.739E+02 -.739E+01 -.151E+03   -.783E+02 0.888E+01 0.154E+03   0.439E+01 -.151E+01 -.281E+01   -.593E-04 -.193E-04 -.159E-03
   -.160E+03 0.433E+02 0.346E+03   0.174E+03 -.547E+02 -.337E+03   -.142E+02 0.115E+02 -.955E+01   -.141E-03 0.685E-03 -.351E-03
[...]
   -.535E+02 -.132E+02 0.210E+03   0.529E+02 0.120E+02 -.212E+03   0.460E+00 0.731E+00 0.896E+00   0.486E-03 -.207E-03 -.270E-03
   0.580E+02 -.310E+02 -.138E+03   -.526E+02 0.296E+02 0.135E+03   -.544E+01 0.140E+01 0.312E+01   -.468E-03 -.906E-03 0.452E-03
   -.892E+02 -.243E+02 0.383E+03   0.893E+02 0.223E+02 -.385E+03   -.175E+00 0.200E+01 0.171E+01   -.172E-03 0.357E-03 -.377E-03
   -.516E+02 0.958E+02 -.273E+03   0.512E+02 -.961E+02 0.274E+03   0.401E+00 0.190E+00 -.169E+01   0.143E-03 -.522E-03 0.333E-03
   -.707E+01 0.804E-01 0.310E+02   0.773E+01 -.335E+01 -.334E+02   -.996E+00 0.969E+01 0.186E+01   -.149E-04 -.338E-06 -.262E-03
   -.282E+02 0.868E+02 0.458E+03   0.282E+02 -.852E+02 -.459E+03   -.287E-01 -.173E+01 0.155E+01   0.295E-03 -.116E-03 0.727E-04
   0.102E+03 -.977E+01 -.192E+02   -.101E+03 0.119E+02 0.196E+02   -.129E+01 -.236E+01 -.557E+00   -.411E-03 -.227E-03 0.578E-03
   0.110E+03 0.169E+02 0.146E+03   -.104E+03 -.968E+01 -.150E+03   -.282E+02 -.231E+02 0.856E+01   -.408E-03 -.805E-04 0.206E-03
   -.929E+01 0.102E+03 -.422E+03   0.109E+02 -.101E+03 0.422E+03   -.156E+01 -.162E+01 0.476E+00   0.692E-04 -.520E-03 0.780E-03
   -.326E+02 0.357E+02 0.131E+03   0.326E+02 -.365E+02 -.131E+03   -.207E+00 0.752E+00 -.963E+00   -.445E-03 -.254E-03 0.152E-02
   0.663E+02 -.226E+02 -.362E+03   -.669E+02 0.233E+02 0.363E+03   0.637E+00 -.697E+00 -.778E+00   -.231E-03 0.519E-04 0.543E-03
   0.533E+02 -.577E+02 -.319E+03   -.543E+02 0.529E+02 0.319E+03   0.101E+01 0.476E+01 0.997E-01   -.143E-03 0.537E-03 -.219E-02
   0.666E+02 0.657E+02 -.175E+03   -.626E+02 -.623E+02 0.179E+03   -.399E+01 -.341E+01 -.356E+01   -.388E-03 -.458E-03 0.184E-02
   -.225E+02 0.630E+02 -.737E+03   0.238E+02 -.645E+02 0.738E+03   -.130E+01 0.158E+01 -.670E+00   -.596E-05 0.231E-03 -.108E-02
   0.293E+03 -.222E+03 -.147E+03   -.160E-12 -.142E-12 0.182E-11   -.293E+03 0.222E+03 0.147E+03   0.297E-01 0.286E-01 0.170E-01

 POSITION                                       TOTAL-FORCE (eV/Angst)
     12.10687      8.75781     20.10095         0.002891     -0.004946      0.002342
      9.87337      9.40390     20.80900         0.005668      0.003316      0.003944
      8.93409      9.18212     19.77455         0.001600      0.003542      0.000020
     10.21559     10.80132     21.27926         0.011326      0.002580     -0.004588
      7.94875      8.02411     19.82194         0.003637     -0.000131     -0.002802
     17.81371      1.86038     17.50432        -0.003263     -0.007542      0.004941
     21.68887      5.04983      9.57948         0.104486      0.074500     -0.026911
     18.57311      3.75615     10.03977         0.038174      0.114065      0.045993
     22.81522     17.09936      8.74523         0.109273      0.057237      0.029983
     14.64921     17.45932     10.08748         0.054898     -0.004614     -0.057659
     19.20987     18.03075      9.91976         0.120913      0.024826     -0.000362
     17.55831      2.55833     12.31361        -0.112017     -0.222679     -0.132148
     21.44121      4.52085     13.63552        -0.001256     -0.000088     -0.003982
     13.66032      5.51363      8.22435        -0.099940     -0.126952      0.044914
     20.82352      6.05244     16.53513        -0.003979     -0.001741     -0.005458
     13.80260      6.52758     16.51060         0.003403     -0.004014      0.005699
     13.88991     15.77909     15.54430         0.000690     -0.001611     -0.004535
      0.58297      6.08485     17.67714         0.000938      0.003137      0.000050
     21.89589      7.60212     12.20778        -0.080641      0.135097      0.068996
     17.46807      9.60991     11.35790        -0.327314      0.164407     -0.038673
     18.66325      6.92555     17.05588         0.001541     -0.001794     -0.003833
     13.83846     10.30524     10.16285         0.097963     -0.184842      0.068049
     16.81947     11.70510     10.30871        -0.030041      0.240621     -0.016434
     19.69248      9.82944     11.28016        -0.106412     -0.101113      0.014221
      0.11154     10.94157      9.61829         0.111663     -0.008668     -0.029282
     19.39295     12.90878     12.57986         0.225166     -0.036992     -0.051302
     20.51297     10.86412     19.39591         0.001157     -0.002240     -0.006450
     12.17365     17.85965     11.33680         0.013446      0.126898     -0.099305
      5.22293     17.76162     10.57067        -0.011008     -0.351794      0.119019
      5.06559      4.31016      8.58199         0.179106     -0.199397      0.071897
      3.68730      5.97650      7.50000         0.014824     -0.074953      0.106812
      7.99605      2.81941      8.89229         0.085172     -0.089339      0.066750
      5.21407      0.82921      8.67630         0.003268      0.019394      0.151304
     11.96432     14.96965     14.69768        -0.001214     -0.001906     -0.000601
      9.50779      4.49326     17.61688        -0.002542     -0.000768      0.003863
      5.69917      1.69989     16.10199         0.000154     -0.006457      0.003303
      7.38348      8.82752     11.89413         0.240633      0.097864     -0.172755
      9.57419      7.95042     10.90633         0.121820     -0.108944     -0.116079
      9.32939     14.37220     10.45190         0.056831     -0.000133      0.128879
      5.71709     11.87720      7.91250        -0.103175     -0.016515      0.041652
      7.29827      7.58330      9.92689        -0.163415     -0.090213     -0.009248
      9.49268     10.58787      9.10862        -0.110188      0.039210     -0.001227
      3.26254      8.84269      9.46105        -0.024810     -0.205323     -0.120715
     13.88920     12.64839      9.47364        -0.127355     -0.096070      0.167487
     10.98006     15.61013     11.93160         0.313743      0.330742      0.163227
      2.63223      5.96667     16.46230        -0.002601      0.009181     -0.003867
      1.67029     12.07762     17.34198        -0.000909      0.001272     -0.001247
      5.73488      6.46171     18.16239         0.009838     -0.008178     -0.008709
      5.73855     14.80968     17.96911        -0.005731     -0.008416     -0.003403
     12.33867      7.93224     20.77940        -0.000930     -0.003370     -0.001668
     12.65605      9.68980     20.29019         0.003457     -0.003227      0.002643
     10.00409      8.59765     21.53626         0.002876      0.003753      0.001258
      8.58148     10.08305     19.26283         0.002518      0.000361      0.001407
     11.18490     10.85713     21.79058         0.006941     -0.007794      0.006811
     10.19934     11.50930     20.44086         0.033746     -0.004235     -0.011092
      9.43501     11.10379     22.00003         0.006449      0.018627     -0.017470
      7.60915      7.74946     18.81569         0.010061     -0.000553     -0.004857
      8.39099      7.14115     20.30112         0.001123      0.000328     -0.000486
      7.06236      8.34027     20.39916        -0.001234     -0.001681     -0.009287
      8.63740     11.74900     11.80180        -0.238615      0.116921     -0.223860
[...]
      5.71814      6.71222     11.31648         0.011952     -0.135523     -0.114750
     15.41693      5.98005     12.10687        -0.162594     -0.442985     -0.828582
     10.77748      5.77407     14.21835        -0.000825      0.001113      0.003379
      7.89661     10.69049     10.72869        -0.113483     -0.065411     -0.029137
     18.80109      8.63608     15.58601        -0.002763     -0.002998     -0.002125
      1.62029     16.28844     12.91761        -0.355193      6.421479     -0.539111
      4.96103      2.61769     10.04353        -0.090557     -0.036009      0.075633
      1.83153      8.95162     13.29887         0.001996     -0.252668     -0.228583
     13.05344     15.44546     12.76235       -22.324591    -15.873133      4.736367
     16.80782     10.59334     16.38987         0.000162      0.000320     -0.000743
      6.71066      3.80730     12.34244        -0.249100      0.029841     -0.705566
      2.06156     11.33383     15.25885         0.002196      0.001787     -0.001215
      8.25335      0.35623     15.60404         0.000445     -0.001541      0.007062
     11.37027      8.73621     15.35724        -0.004342      0.001622      0.002024
     10.89692      8.67895     18.59328         0.000570      0.000260      0.001019
    total drift:                                0.185936      0.203153      0.323286

  FREE ENERGIE OF THE ION-ELECTRON SYSTEM (eV)
  free  energy   TOTEN  =     -1903.22020475 eV

  energy  without entropy=    -1903.22020475  energy(sigma->0) =    -1903.22020475

 d Force = 0.8862773E-04[ 0.485E-04, 0.129E-03]  d Energy = 0.1504781E-03-0.619E-04
 d Force =-0.4776795E-01[-0.478E-01,-0.477E-01]  d Ewald  =-0.4776833E-01 0.379E-06

 NEB: the previous image is higher in energy: F
 NEB: the next image is higher in energy    : F
 NEB: image is at an extrema
 NEB: diff energy (min, max):     0.015214    0.129460

 NEB: Tangent
     -0.12622      0.16869      0.15158
      0.23050     -0.16293     -0.00557
      0.20248     -0.15719     -0.06251
      0.01298     -0.13276      0.10321
      0.15249     -0.12551      0.01281
     -0.00010      0.00034     -0.00046
      0.00000      0.00000      0.00000
      0.00000      0.00000      0.00000
      0.00000      0.00000      0.00000
      0.00000      0.00000      0.00000
      0.00000      0.00000      0.00000
      0.00000      0.00000      0.00000
     -0.00294      0.00026      0.01209
      0.00000      0.00000      0.00000
      0.01114      0.00094     -0.00376
     -0.02283     -0.00190      0.00034
      0.00010     -0.00070     -0.00097
      0.05966      0.03543     -0.07171
      0.00000      0.00000      0.00000
      0.00000      0.00000      0.00000
      0.01849      0.01037      0.01476
      0.00000      0.00000      0.00000
      0.00000      0.00000      0.00000
      0.00000      0.00000      0.00000
      0.00000      0.00000      0.00000
      0.00000      0.00000      0.00000
      0.00468     -0.00070     -0.00210
      0.00000      0.00000      0.00000
      0.00000      0.00000      0.00000
      0.00000      0.00000      0.00000
      0.00000      0.00000      0.00000
      0.00000      0.00000      0.00000
      0.00000      0.00000      0.00000
     -0.00010     -0.00254     -0.00014
      0.03330     -0.02149      0.02246
      0.00212     -0.00237     -0.00254
      0.00000      0.00000      0.00000
      0.00000      0.00000      0.00000
      0.00000      0.00000      0.00000
      0.00000      0.00000      0.00000
      0.00000      0.00000      0.00000
      0.00000      0.00000      0.00000
      0.00000      0.00000      0.00000
      0.00000      0.00000      0.00000
      0.00000      0.00000      0.00000
      0.05400     -0.06500     -0.00078
     -0.00137     -0.00158     -0.00028
     -0.10617      0.03528      0.09882
      0.00340      0.00106      0.00019
     -0.05756      0.19305      0.15573
     -0.17285      0.20014      0.11586
      0.11858     -0.15680      0.01363
      0.11963     -0.10631      0.07953
     -0.07161     -0.04870      0.27139
      0.08592     -0.11812      0.11136
     -0.14651     -0.22088     -0.01996
      0.05138     -0.08305      0.03122
      0.17235     -0.15791     -0.06189
      0.21048     -0.12301      0.10592
      0.00000      0.00000      0.00000
[...]
      0.00000      0.00000      0.00000
      0.00000      0.00000      0.00000
     -0.00396     -0.00078     -0.00025
      0.00000      0.00000      0.00000
      0.00145      0.00031      0.00045
      0.00000      0.00000      0.00000
      0.00000      0.00000      0.00000
      0.00000      0.00000      0.00000
      0.00000      0.00000      0.00000
      0.00064      0.00077     -0.00023
      0.00000      0.00000      0.00000
     -0.00030     -0.00032      0.00009
      0.00250     -0.00324     -0.00089
     -0.01501      0.00181     -0.01577
      0.02177     -0.05023      0.00478

 NEB: forces: par spring, perp REAL, dneb     0.207935    0.094837    0.000000
 NEB: distance to prev, next image, angle between     0.528669    0.570256  126.292201
 NEB: projections on to tangent (spring, REAL)     0.207935   -0.008809

 stress matrix after NEB project (eV)
    -33.02758     -0.01714      0.38981
     -0.01714    -33.51698     -0.43032
      0.38981     -0.43032    -25.41493
  FORCES: max atom, RMS     0.036967    0.005702
  FORCE total and by dimension    0.095246    0.035260
  Stress total and by dimension   53.486474   33.516985
 OPT: skip step - force has converged

 reached required accuracy - stopping structural energy minimisation