 vasp.5.4.4.18Apr17-6-g9f103f2a35 (build Oct 20 2021 08:33:53) complex
 executed on             LinuxGNU date 2025.03.09  12:58:39

 INCAR:
 POTCAR:    PAW_PBE C 08Apr2002
 POTCAR:    PAW_PBE H 15Jun2001
 POTCAR:    PAW_PBE O 08Apr2002
 POTCAR:    PAW_PBE Si 05Jan2001
 POTCAR:    PAW_PBE W 08Apr2002
 POTCAR:    PAW_PBE C 08Apr2002
   VRHFIN =C: s2p2

   TITEL  = PAW_PBE C 08Apr2002
   POMASS =   12.011; ZVAL   =    4.000    mass and valenz
   ENMAX  =  400.000; ENMIN  =  300.000 eV

 POTCAR:    PAW_PBE H 15Jun2001
   VRHFIN =H: ultrasoft test

   TITEL  = PAW_PBE H 15Jun2001
   POMASS =    1.000; ZVAL   =    1.000    mass and valenz
   ENMAX  =  250.000; ENMIN  =  200.000 eV

 POTCAR:    PAW_PBE O 08Apr2002
   VRHFIN =O: s2p4

[...]

 POTCAR:    PAW_PBE Si 05Jan2001
   VRHFIN =Si: s2p2

   TITEL  = PAW_PBE Si 05Jan2001
   POMASS =   28.085; ZVAL   =    4.000    mass and valenz
   ENMAX  =  245.345; ENMIN  =  184.009 eV

 POTCAR:    PAW_PBE W 08Apr2002
   VRHFIN =W : 6s5d

   TITEL  = PAW_PBE W 08Apr2002
   POMASS =  183.850; ZVAL   =    6.000    mass and valenz
   ENMAX  =  223.057; ENMIN  =  167.293 eV

 Optimization of the real space projectors (new method)

 maximal supplied QI-value         = 25.13
 optimisation between [QCUT,QGAM] = [ 11.31, 22.87] = [ 35.82,146.48] Ry
 Optimized for a Real-space Cutoff    1.00 Angstroem

   l    n(q)    QCUT    max X(q) W(low)/X(q) W(high)/X(q)  e(spline)
   0      7    11.310   115.676    0.43E-03    0.13E-02    0.19E-06
   0      7    11.310    87.132    0.43E-03    0.13E-02    0.18E-06
   1      6    11.310     4.429    0.42E-03    0.74E-03    0.11E-06
   1      6    11.310     2.733    0.34E-03    0.55E-03    0.92E-07
 Optimization of the real space projectors (new method)

[...]

   l    n(q)    QCUT    max X(q) W(low)/X(q) W(high)/X(q)  e(spline)
   0      8    11.310   159.560    0.27E-03    0.30E-03    0.39E-07
   0      8    11.310   115.863    0.27E-03    0.30E-03    0.38E-07
   1      7    11.310    88.339    0.28E-03    0.28E-03    0.77E-07
   1      7    11.310    48.592    0.27E-03    0.27E-03    0.74E-07
 Optimization of the real space projectors (new method)

 maximal supplied QI-value         = 13.61
 optimisation between [QCUT,QGAM] = [ 11.43, 22.86] = [ 36.58,146.31] Ry
 Optimized for a Real-space Cutoff    1.56 Angstroem

   l    n(q)    QCUT    max X(q) W(low)/X(q) W(high)/X(q)  e(spline)
   2     10    11.429   130.855    0.22E-03    0.64E-03    0.11E-05
   2     10    11.429   114.007    0.22E-03    0.64E-03    0.11E-05
   0     11    11.429    84.709    0.39E-04    0.67E-04    0.23E-06
   0     11    11.429    49.163    0.35E-04    0.62E-04    0.21E-06
   1     10    11.429    15.765    0.84E-04    0.15E-03    0.24E-06
   1     10    11.429    10.638    0.58E-04    0.12E-03    0.19E-06

  PAW_PBE C 08Apr2002                   :
  PAW_PBE H 15Jun2001                   :
  PAW_PBE O 08Apr2002                   :
  PAW_PBE Si 05Jan2001                  :
  PAW_PBE W 08Apr2002                   :

 POSCAR:  C  H  O Si  W
  positions in direct lattice
  velocities in cartesian coordinates
 exchange correlation table for  LEXCH =        9
   RHO(1)=    0.500       N(1)  =     2000
   RHO(2)=  100.500       N(2)  =     4000

 VTST: version 3.2, (02/03/18)

 CHAIN: initializing optimizer

 OPT: Using LBFGS optimizer
 OPT: LBFGS, Init
 OPT: LBFGS, IMAGES              8
 OPT: LBFGS, MAXMOVE      0.200000
 OPT: LBFGS, LGLOBAL      T
 OPT: LBFGS, INVCURV      0.010000
 OPT: LBFGS, LLINEOPT      F
 OPT: LBFGS, FDSTEP       0.005000
 OPT: LBFGS, LAUTOSCALE      T
 OPT: LBFGS, DAMPING      2.000000

 CHAIN: Read ICHAIN            0
 CHAIN: Running the NEB
 NEB:          SPRING     -5.000000
 NEB:          LCLIMB      T
 NEB:     LTANGENTOLD      F
 NEB:           LDNEB      F
 NEB:        LDNEBORG      F
 NEB:        LNEBCELL      F
 NEB:          EFIRST      0.000000
 NEB:           ELAST      0.000000

 POSCAR:  C  H  O Si  W
  positions in cartesian coordinates

 POSCAR:  C  H  O Si  W
  positions in cartesian coordinates

 ion  position               nearest neighbor table
   1  0.556  0.557  0.754-  51 1.09  50 1.09   2 1.35
   2  0.515  0.552  0.790-  52 1.09   1 1.35   4 1.50
   3  0.400  0.450  0.688-  53 1.10   5 1.51 279 1.91
   4  0.478  0.615  0.805-  55 1.10  56 1.10  54 1.10   2 1.50
   5  0.370  0.386  0.713-  58 1.10  57 1.10  59 1.11   3 1.51
   6  0.761  0.104  0.651- 134 0.97
   7  0.926  0.279  0.356-  82 0.98
   8  0.793  0.207  0.373- 117 0.97
   9  0.975  0.944  0.325- 126 0.97
  10  0.626  0.963  0.375- 128 0.98
  11  0.821  0.995  0.369- 146 0.97
  12  0.750  0.141  0.458- 184 0.98
  13  0.916  0.249  0.509- 189 0.97
  14  0.583  0.304  0.306- 194 0.97
  15  0.890  0.334  0.616- 100 0.98
  16  0.586  0.357  0.616- 145 0.97
  17  0.594  0.872  0.578- 187 0.99
  18  0.033  0.339  0.651- 193 0.97
  19  0.935  0.420  0.454- 182 0.98
  20  0.746  0.530  0.422-  96 1.00
  21  0.798  0.383  0.635- 174 0.97
  22  0.591  0.569  0.378- 108 0.99
  23  0.718  0.646  0.383- 131 0.99
  24  0.841  0.542  0.420- 137 0.98
  25  0.005  0.604  0.358- 142 0.97
  26  0.828  0.712  0.468- 183 0.99
  27  0.875  0.599  0.722-  62 0.97
  28  0.520  0.986  0.422- 144 0.99
  29  0.223  0.980  0.393- 185 1.00
  30  0.216  0.238  0.319- 200 0.99
  31  0.158  0.330  0.279- 191 0.97
  32  0.342  0.156  0.331- 192 0.98
  33  0.223  0.046  0.323- 199 0.97
  34  0.512  0.825  0.547- 202 0.97
  35  0.396  0.248  0.652-  87 0.97
  36  0.244  0.093  0.599- 138 0.98
  37  0.315  0.487  0.442-  61 0.99
  38  0.409  0.439  0.406- 150 0.98
  39  0.398  0.793  0.389- 188 0.97
  40  0.244  0.655  0.294- 196 0.97
  41  0.312  0.418  0.369- 197 0.98
  42  0.405  0.584  0.339- 198 0.97
  43  0.139  0.488  0.352- 190 0.98
  44  0.593  0.698  0.352-  91 0.97
  45  0.469  0.861  0.444- 201 0.99
  46  0.118  0.322  0.609- 110 0.97
  47  0.071  0.666  0.645- 141 0.97
  48  0.230  0.386  0.683- 186 0.97
  49  0.245  0.815  0.669- 195 0.97
  50  0.585  0.511  0.747-   1 1.09
  51  0.564  0.608  0.734-   1 1.09
  52  0.510  0.500  0.809-   2 1.09
  53  0.373  0.486  0.666-   3 1.10
  54  0.487  0.630  0.844-   4 1.10
  55  0.483  0.663  0.782-   4 1.10
  56  0.432  0.599  0.805-   4 1.10
  57  0.345  0.354  0.685-   5 1.10
  58  0.400  0.349  0.732-   5 1.10
  59  0.338  0.407  0.740-   5 1.11
  60  0.369  0.648  0.439- 233 1.66 268 1.68
[...]
 221  0.214  0.476  0.510- 181 1.61 180 1.63 140 1.66 177 1.66 232 3.10 265 3.14
 222  0.915  0.756  0.496- 105 1.65 183 1.65  89 1.65  94 1.66 235 2.99 243 3.03
 223  0.521  0.110  0.426- 116 1.64  67 1.65 144 1.66 124 1.67 254 3.08 237 3.12
 224  0.419  0.169  0.590-  87 1.64 204 1.66 104 1.68 164 1.69 264 3.15
 225  0.083  0.139  0.407-  66 1.64 147 1.65  92 1.65 160 1.66 218 3.11 217 3.13 271 3.14
 226  0.702  0.045  0.487-  99 1.64 168 1.65  65 1.65 184 1.66 237 3.09 227 3.10
 227  0.665  0.898  0.437-  98 1.53 168 1.66 128 1.66 159 1.67 273 2.83 260 3.06 226 3.10
 228  0.650  0.504  0.430- 108 1.65 166 1.65  96 1.67 102 1.68 236 3.07
 229  0.198  0.912  0.464- 139 1.50 185 1.64 162 1.66 118 1.67 247 3.01 244 3.06 270 3.07
 230  0.211  0.367  0.602-  86 1.63 181 1.63 110 1.64 186 1.65
 231  0.674  0.814  0.595- 187 1.62 119 1.64 101 1.68 209 1.70 258 2.90
 232  0.217  0.642  0.539- 179 1.63 172 1.63 205 1.65 140 1.65 247 3.09 221 3.10 276 3.12
 233  0.369  0.735  0.459-  76 1.65  60 1.66 107 1.66 188 1.68
 234  0.798  0.889  0.596- 143 1.66 101 1.66 112 1.66 208 1.68 243 2.86 235 2.99 261 3.15
 235  0.880  0.912  0.512-  75 1.60  94 1.62 112 1.65 120 1.65 222 2.99 234 2.99 259 3.05 250 3.13

 236  0.576  0.575  0.512- 102 1.58 169 1.62 103 1.63 136 1.65 246 3.00 228 3.07
 237  0.590  0.116  0.525-  65 1.60 124 1.61 161 1.62 151 1.65 264 2.85 226 3.09 248 3.12 223 3.12

[...]

 275  0.287  0.210  0.459- 176 1.63 125 1.63  70 1.66 155 1.67 253 3.03 271 3.12
 276  0.088  0.625  0.568- 165 1.63 141 1.63 111 1.64 172 1.65 272 3.09 232 3.12 252 3.15
 277  0.354  0.018  0.579- 164 1.63  72 1.66 211 1.69  63 1.70 244 2.38 263 2.75
 278  0.486  0.480  0.572- 136 1.64  80 1.66  88 1.67 130 1.67 255 3.01 279 3.18
 279  0.479  0.480  0.690- 213 1.73   3 1.91  80 1.96 127 2.03 255 3.16 278 3.18

  LATTYP: Found a simple orthorhombic cell.
 ALAT       =    18.1212369514
 B/A-ratio  =     1.2919258579
 C/A-ratio  =     1.4835282260

  Lattice vectors:

 A1 = (   0.0000000000, -18.1212369514,   0.0000000000)
 A2 = ( -23.4112945954,   0.0000000000,   0.0000000000)
 A3 = (   0.0000000000,   0.0000000000, -26.8833665073)

Analysis of symmetry for initial positions (statically):
 Subroutine PRICEL returns:
 Original cell was already a primitive cell.

 Routine SETGRP: Setting up the symmetry group for a
 simple orthorhombic supercell.

 Subroutine GETGRP returns: Found  1 space group operations
 (whereof  1 operations were pure point group operations)
 out of a pool of  8 trial point group operations.

The static configuration has the point symmetry C_1 .

Analysis of symmetry for dynamics (positions and initial velocities):
 Subroutine PRICEL returns:
 Original cell was already a primitive cell.

[...]

The dynamic configuration has the point symmetry C_1 .

Analysis of constrained symmetry for selective dynamics:
 Subroutine PRICEL returns:
 Original cell was already a primitive cell.

 Routine SETGRP: Setting up the symmetry group for a
 simple orthorhombic supercell.

 Subroutine GETGRP returns: Found  1 space group operations
 (whereof  1 operations were pure point group operations)
 out of a pool of  8 trial point group operations.

The constrained configuration has the point symmetry C_1 .

 Subroutine INISYM returns: Found  1 space group operations
 (whereof  1 operations are pure point group operations),
 and found     1 'primitive' translations

 KPOINTS: KPOINTS created by Atomic Simulation Env

Automatic generation of k-mesh.
Space group operators:
 irot       det(A)        alpha          n_x          n_y          n_z        tau_x        tau_y        tau_z
    1     1.000000     0.000000     1.000000     0.000000     0.000000     0.000000     0.000000     0.000000

 Subroutine IBZKPT returns following result:

 Found      5 irreducible k-points:

 Following reciprocal coordinates:
            Coordinates               Weight
  0.000000  0.000000  0.000000      1.000000
  0.333333  0.000000  0.000000      2.000000
  0.000000  0.333333  0.000000      2.000000
  0.333333  0.333333  0.000000      2.000000
 -0.333333  0.333333  0.000000      2.000000

 Following cartesian coordinates:
            Coordinates               Weight
  0.000000  0.000000  0.000000      1.000000
  0.014238  0.000000  0.000000      2.000000
  0.000000  0.018395  0.000000      2.000000
  0.014238  0.018395  0.000000      2.000000
 -0.014238  0.018395  0.000000      2.000000

 SYSTEM =  unknown system
 POSCAR =   C  H  O Si  W

 Startparameter for this run:
   NWRITE =      2    write-flag & timer
   PREC   = normal    normal or accurate (medium, high low for compatibility)
   ISTART =      0    job   : 0-new  1-cont  2-samecut
   ICHARG =      2    charge: 1-file 2-atom 10-const
   ISPIN  =      1    spin polarized calculation?
[...]
   0.449E+02 0.594E+02 0.778E+02   -.482E+02 -.656E+02 -.744E+02   0.328E+01 0.627E+01 -.354E+01   -.740E-04 -.632E-04 0.198E-05
   -.155E+02 -.346E+02 0.129E+03   0.157E+02 0.410E+02 -.133E+03   -.263E+00 -.677E+01 0.317E+01   0.344E-04 -.388E-04 -.110E-03
   0.193E+02 -.451E+02 0.180E+03   -.236E+02 0.508E+02 -.183E+03   0.441E+01 -.594E+01 0.227E+01   0.142E-04 -.543E-04 -.110E-03
   -.160E+01 -.365E+02 0.238E+03   0.212E+01 0.403E+02 -.246E+03   -.515E+00 -.386E+01 0.730E+01   -.869E-06 -.702E-04 -.102E-03
   0.441E+02 -.133E+02 0.192E+03   -.502E+02 0.168E+02 -.196E+03   0.618E+01 -.353E+01 0.405E+01   -.123E-04 -.250E-04 -.149E-03
   -.142E+01 0.499E+02 0.229E+03   0.775E+00 -.517E+02 -.237E+03   0.646E+00 0.182E+01 0.808E+01   0.142E-04 -.521E-04 -.195E-03
   0.659E+02 0.893E+01 -.669E+02   -.736E+02 -.945E+01 0.700E+02   0.766E+01 0.524E+00 -.309E+01   -.159E-03 0.178E-05 0.152E-03
   0.116E+02 -.760E+02 -.154E+03   -.120E+02 0.842E+02 0.156E+03   0.373E+00 -.822E+01 -.183E+01   -.258E-04 0.220E-04 -.225E-03
   0.144E+02 0.779E+02 -.104E+03   -.127E+02 -.859E+02 0.103E+03   -.168E+01 0.792E+01 0.120E+01   0.397E-04 -.455E-05 0.234E-04
   0.175E+02 0.168E+02 -.300E+01   -.229E+02 -.193E+02 0.745E+01   0.559E+01 0.252E+01 -.459E+01   0.356E-04 -.866E-05 0.178E-03
   0.280E+02 -.518E+02 0.546E+02   -.331E+02 0.562E+02 -.507E+02   0.525E+01 -.445E+01 -.402E+01   -.545E-04 0.163E-04 0.954E-04
   0.145E+02 -.266E+02 0.208E+03   -.166E+02 0.274E+02 -.216E+03   0.214E+01 -.794E+00 0.797E+01   -.743E-05 0.198E-04 -.562E-04
   -.763E+02 -.274E+02 0.198E+03   0.834E+02 0.285E+02 -.202E+03   -.723E+01 -.106E+01 0.394E+01   0.158E-03 0.926E-04 -.130E-03
   -.830E+02 -.366E+02 0.135E+03   0.899E+02 0.406E+02 -.135E+03   -.716E+01 -.403E+01 -.164E+00   0.802E-04 0.124E-04 0.111E-04
   -.102E+03 0.109E+02 0.155E+03   0.110E+03 -.128E+02 -.156E+03   -.796E+01 0.202E+01 0.105E+01   0.414E-04 0.405E-04 -.889E-04
   0.917E+00 -.696E+02 0.101E+03   0.380E+00 0.763E+02 -.967E+02   -.133E+01 -.693E+01 -.420E+01   -.519E-04 0.108E-04 0.494E-04
   -.329E+02 -.495E+02 0.218E+03   0.368E+02 0.540E+02 -.224E+03   -.406E+01 -.454E+01 0.558E+01   -.456E-04 0.113E-03 -.259E-03
   0.757E+02 0.224E+02 0.109E+03   -.816E+02 -.264E+02 -.112E+03   0.621E+01 0.436E+01 0.246E+01   -.103E-03 -.747E-05 0.148E-04
   0.481E+02 0.557E+02 -.114E+03   -.531E+02 -.623E+02 0.113E+03   0.500E+01 0.664E+01 0.967E+00   0.262E-05 0.619E-04 -.649E-05
   -.107E+02 -.730E+02 -.193E+03   0.124E+02 0.793E+02 0.198E+03   -.180E+01 -.635E+01 -.522E+01   0.366E-04 0.712E-04 -.379E-05
   0.375E+02 0.182E+02 -.223E+03   -.402E+02 -.205E+02 0.230E+03   0.269E+01 0.234E+01 -.761E+01   -.397E-04 0.136E-04 -.208E-03
   0.279E+02 -.767E+02 -.196E+03   -.280E+02 0.837E+02 0.201E+03   0.603E-01 -.694E+01 -.472E+01   -.333E-04 0.347E-04 -.793E-04
   -.665E+02 0.462E+02 -.126E+03   0.701E+02 -.506E+02 0.125E+03   -.357E+01 0.442E+01 0.987E+00   0.692E-04 0.736E-04 -.369E-03
   -.339E+02 -.524E+02 -.119E+03   0.348E+02 0.573E+02 0.116E+03   -.903E+00 -.492E+01 0.295E+01   -.252E-04 0.885E-04 -.412E-03
   0.152E+01 0.549E+02 -.157E+03   -.214E+01 -.599E+02 0.160E+03   0.629E+00 0.509E+01 -.272E+01   -.755E-05 0.259E-04 -.132E-03
   0.643E+02 -.300E+02 -.881E+02   -.675E+02 0.333E+02 0.852E+02   0.318E+01 -.333E+01 0.295E+01   0.243E-04 0.881E-04 -.325E-03
   -.373E+01 -.292E+02 -.155E+03   0.483E+01 0.307E+02 0.160E+03   -.112E+01 -.141E+01 -.512E+01   0.165E-04 0.677E-04 -.111E-04
   0.628E+01 -.707E+02 -.101E+03   -.566E+01 0.752E+02 0.982E+02   -.651E+00 -.449E+01 0.327E+01   0.837E-05 0.105E-03 -.407E-03
   0.727E+02 -.152E+01 -.121E+03   -.780E+02 0.136E+00 0.121E+03   0.530E+01 0.141E+01 0.899E-01   -.165E-03 -.578E-05 -.275E-03
   0.391E+02 0.374E+02 -.100E+03   -.420E+02 -.401E+02 0.964E+02   0.297E+01 0.275E+01 0.364E+01   -.110E-03 -.226E-04 -.365E-03
   -.115E+02 0.552E+02 -.161E+03   0.150E+02 -.585E+02 0.163E+03   -.356E+01 0.335E+01 -.274E+01   -.992E-04 -.718E-04 -.318E-03
   0.568E+02 -.805E+01 -.168E+03   -.604E+02 0.986E+01 0.172E+03   0.357E+01 -.185E+01 -.355E+01   -.170E-03 0.411E-04 -.251E-03
   -.158E+03 0.445E+02 0.342E+03   0.172E+03 -.559E+02 -.333E+03   -.142E+02 0.114E+02 -.965E+01   0.161E-03 0.156E-03 0.593E-03
[...]
   -.535E+02 -.133E+02 0.212E+03   0.529E+02 0.121E+02 -.214E+03   0.455E+00 0.736E+00 0.874E+00   0.179E-03 -.294E-03 0.328E-03
   0.620E+02 -.294E+02 -.139E+03   -.565E+02 0.281E+02 0.135E+03   -.554E+01 0.127E+01 0.324E+01   -.312E-03 0.118E-03 0.527E-03
   -.882E+02 -.244E+02 0.381E+03   0.883E+02 0.223E+02 -.383E+03   -.178E+00 0.199E+01 0.168E+01   0.225E-03 0.943E-04 0.224E-03
   -.557E+02 0.968E+02 -.270E+03   0.553E+02 -.971E+02 0.272E+03   0.397E+00 0.217E+00 -.175E+01   0.393E-03 -.135E-03 0.123E-04
   -.843E+01 0.114E+01 0.306E+02   0.912E+01 -.430E+01 -.329E+02   -.987E+00 0.961E+01 0.179E+01   -.146E-03 -.231E-03 0.137E-03
   -.277E+02 0.864E+02 0.457E+03   0.277E+02 -.848E+02 -.458E+03   -.348E-01 -.173E+01 0.153E+01   0.170E-04 -.745E-04 -.436E-03
   0.989E+02 -.686E+01 -.229E+02   -.976E+02 0.910E+01 0.233E+02   -.133E+01 -.240E+01 -.664E+00   -.272E-03 -.148E-03 0.466E-03
   0.114E+03 0.180E+02 0.149E+03   -.108E+03 -.108E+02 -.153E+03   -.283E+02 -.230E+02 0.847E+01   -.468E-03 0.138E-03 0.263E-03
   -.167E+02 0.103E+03 -.413E+03   0.183E+02 -.101E+03 0.413E+03   -.157E+01 -.163E+01 0.312E+00   0.119E-03 -.768E-04 0.109E-03
   -.303E+02 0.354E+02 0.131E+03   0.303E+02 -.361E+02 -.130E+03   -.221E+00 0.761E+00 -.104E+01   0.208E-03 0.168E-03 0.502E-03
   0.622E+02 -.208E+02 -.364E+03   -.629E+02 0.216E+02 0.365E+03   0.632E+00 -.783E+00 -.868E+00   -.320E-04 -.140E-03 0.204E-03
   0.547E+02 -.564E+02 -.315E+03   -.558E+02 0.518E+02 0.315E+03   0.115E+01 0.467E+01 0.480E-01   0.196E-03 -.246E-04 0.719E-04
   0.764E+02 0.554E+02 -.176E+03   -.724E+02 -.528E+02 0.179E+03   -.403E+01 -.257E+01 -.290E+01   -.529E-03 0.110E-04 0.446E-03
   0.405E+02 0.551E+02 -.766E+03   -.434E+02 -.583E+02 0.766E+03   0.276E+01 0.323E+01 0.889E+00   -.768E-03 0.181E-02 -.322E-02
   0.339E+03 -.232E+03 -.108E+03   0.874E-12 0.774E-12 0.387E-11   -.338E+03 0.233E+03 0.108E+03   -.940E-02 0.106E-01 0.789E-02

 POSITION                                       TOTAL-FORCE (eV/Angst)
     13.02096     10.09050     20.27280        -0.017733      0.018855      0.015326
     12.06601     10.00658     21.23042        -0.008053      0.017504     -0.012426
      9.37489      8.14554     18.50515         0.004285     -0.005783     -0.008088
     11.17906     11.14243     21.65404        -0.014438      0.004392     -0.008298
      8.65822      6.99210     19.15637         0.005426     -0.014333     -0.018488
     17.81269      1.88074     17.50506        -0.003566     -0.001529      0.004691
     21.68887      5.04983      9.57948         0.101314      0.073987     -0.020580
     18.57311      3.75615     10.03977         0.037403      0.113992      0.053071
     22.81522     17.09936      8.74523         0.109036      0.058240      0.037990
     14.64921     17.45932     10.08748         0.055840     -0.005841     -0.051056
     19.20987     18.03075      9.91976         0.121043      0.024952      0.006328
     17.55831      2.55833     12.31361        -0.112491     -0.224335     -0.128570
     21.43437      4.52095     13.67142        -0.000848      0.000324      0.000519
     13.66032      5.51363      8.22435        -0.100934     -0.130051      0.054797
     20.84662      6.05857     16.55103         0.006039     -0.003880      0.002647
     13.70818      6.47396     16.55102        -0.005905      0.012082      0.005706
     13.90690     15.79507     15.53918        -0.004272      0.000740     -0.001734
      0.77983      6.15056     17.49848         0.002073      0.000903      0.004000
     21.89589      7.60212     12.20778        -0.089628      0.136606      0.072267
     17.46807      9.60991     11.35790        -0.324733      0.162629     -0.033210
     18.68981      6.93680     17.07713         0.000995      0.001962     -0.008437
     13.83846     10.30524     10.16285         0.098043     -0.185846      0.070908
     16.81947     11.70510     10.30871        -0.030419      0.241348     -0.012385
     19.69248      9.82944     11.28016        -0.108581     -0.101480      0.019560
      0.11154     10.94157      9.61829         0.112247     -0.008430     -0.023994
     19.39295     12.90878     12.57986         0.221460     -0.038981     -0.051095
     20.48323     10.84879     19.41976         0.004259      0.006395      0.012391
     12.17365     17.85965     11.33680         0.014743      0.126045     -0.093710
      5.22293     17.76162     10.57067        -0.011552     -0.363665      0.129519
      5.06559      4.31016      8.58199         0.179380     -0.200517      0.078434
      3.68730      5.97650      7.50000         0.012973     -0.088065      0.178829
      7.99605      2.81941      8.89229         0.085692     -0.089768      0.072546
      5.21407      0.82921      8.67630         0.002739      0.019308      0.156674
     11.98376     14.94303     14.70445        -0.000192     -0.002097      0.000539
      9.26305      4.48670     17.52076        -0.001890     -0.005383     -0.001098
      5.72077      1.69178     16.09579        -0.003421      0.013050      0.002762
      7.38348      8.82752     11.89413         0.234029      0.094981     -0.169918
      9.57419      7.95042     10.90633         0.122424     -0.109095     -0.113803
      9.32939     14.37220     10.45190         0.049587      0.002035      0.134565
      5.71709     11.87720      7.91250        -0.110729     -0.018348      0.060249
      7.29827      7.58330      9.92689        -0.164644     -0.090572     -0.004982
      9.49268     10.58787      9.10862        -0.111568      0.038816      0.003755
      3.26254      8.84269      9.46105        -0.025049     -0.203931     -0.116621
     13.88920     12.64839      9.47364        -0.126503     -0.096080      0.174326
     10.98006     15.61013     11.93160         0.317112      0.334182      0.169776
      2.76548      5.82907     16.36028         0.006909      0.005695     -0.000468
      1.65641     12.07724     17.34295         0.000134     -0.002089     -0.001989
      5.38824      6.99163     18.35289        -0.001915     -0.004605      0.005406
      5.74704     14.76358     17.99620        -0.005201     -0.005512      0.001693
     13.69353      9.25266     20.07497         0.002283      0.006404      0.002809
     13.19341     11.01702     19.72304        -0.009659      0.017651     -0.004971
     11.93962      9.05408     21.75464        -0.003503      0.010824      0.006240
      8.73406      8.81576     17.90646        -0.004043     -0.005527     -0.011308
     11.41231     11.42107     22.69664        -0.016834      0.015519     -0.000326
     11.31632     12.02252     21.01174        -0.015771      0.009012     -0.007965
     10.11810     10.84701     21.63669        -0.017363      0.001070     -0.007350
      8.07326      6.42144     18.41407         0.008084     -0.010261     -0.015404
      9.35478      6.32842     19.68755         0.007482     -0.011900     -0.018873
      7.92054      7.37658     19.88553         0.002767     -0.023028     -0.013406
      8.63740     11.74900     11.80180        -0.252229      0.088804     -0.259113
[...]
      5.71814      6.71222     11.31648         0.031750     -0.125894     -0.079593
     15.41693      5.98005     12.10687        -0.159632     -0.457772     -0.774007
     10.77184      5.76200     14.21702        -0.004360     -0.002652      0.000468
      7.89661     10.69049     10.72869        -0.109691     -0.058532     -0.005990
     18.80638      8.63412     15.58816         0.005090      0.000532      0.003455
      1.62029     16.28844     12.91761        -0.323619      6.442065     -0.529263
      4.96103      2.61769     10.04353        -0.080100     -0.038909      0.098483
      1.83153      8.95162     13.29887         0.017896     -0.166958     -0.286131
     13.05344     15.44546     12.76235       -22.272259    -15.851047      4.743363
     16.82557     10.60284     16.39065         0.002028      0.005502      0.004490
      6.71066      3.80730     12.34244        -0.232831      0.032619     -0.700828
      2.06446     11.33438     15.25967         0.004196      0.002552      0.003555
      8.27882      0.31983     15.57716         0.000867     -0.001148      0.002098
     11.38839      8.69034     15.36796         0.001076     -0.002495      0.012681
     11.20380      8.69525     18.54391         0.001222      0.009826      0.001801
    total drift:                                0.326863      0.327217      0.355154

  FREE ENERGIE OF THE ION-ELECTRON SYSTEM (eV)
  free  energy   TOTEN  =     -1902.78934821 eV

  energy  without entropy=    -1902.78934821  energy(sigma->0) =    -1902.78934821

 NEB: the previous image is higher in energy: F
 NEB: the next image is higher in energy    : F
 NEB: image is at an extrema
 NEB: diff energy (min, max):     0.084374    0.120916

 NEB: Tangent
      0.22988      0.10855      0.02369
      0.26780      0.09959      0.04618
     -0.08794     -0.07691     -0.25163
      0.21936      0.06363      0.04484
     -0.09100     -0.02158     -0.14907
      0.00585     -0.00126      0.00202
      0.00000      0.00000      0.00000
      0.00000      0.00000      0.00000
      0.00000      0.00000      0.00000
      0.00000      0.00000      0.00000
      0.00000      0.00000      0.00000
      0.00000      0.00000      0.00000
     -0.00073     -0.00003      0.00233
      0.00000      0.00000      0.00000
     -0.00168      0.00049     -0.00415
      0.00996      0.00910     -0.00776
     -0.00396     -0.00440      0.00080
     -0.00116      0.00096     -0.00068
      0.00000      0.00000      0.00000
      0.00000      0.00000      0.00000
      0.00562      0.00377      0.00434
      0.00000      0.00000      0.00000
      0.00000      0.00000      0.00000
      0.00000      0.00000      0.00000
      0.00000      0.00000      0.00000
      0.00000      0.00000      0.00000
     -0.02268     -0.00752      0.01013
      0.00000      0.00000      0.00000
      0.00000      0.00000      0.00000
      0.00000      0.00000      0.00000
      0.00000      0.00000      0.00000
      0.00000      0.00000      0.00000
      0.00000      0.00000      0.00000
     -0.00235     -0.00126     -0.00184
     -0.01457     -0.00003     -0.01423
     -0.00068     -0.00217     -0.00167
      0.00000      0.00000      0.00000
      0.00000      0.00000      0.00000
      0.00000      0.00000      0.00000
      0.00000      0.00000      0.00000
      0.00000      0.00000      0.00000
      0.00000      0.00000      0.00000
      0.00000      0.00000      0.00000
      0.00000      0.00000      0.00000
      0.00000      0.00000      0.00000
     -0.01087     -0.00996     -0.01114
     -0.00030     -0.00119      0.00141
     -0.01168     -0.00795     -0.00201
     -0.00117     -0.00381     -0.00043
      0.19162      0.08660     -0.04859
      0.19900      0.09887     -0.00169
      0.27554      0.09134      0.03418
     -0.07140     -0.15603     -0.35284
      0.14015      0.04063      0.06913
      0.22161      0.08869      0.07721
      0.22727      0.02860     -0.02918
     -0.07732     -0.10413     -0.09388
     -0.08995      0.04359     -0.07156
     -0.09926      0.04272     -0.19362
      0.00000      0.00000      0.00000
[...]
      0.00000      0.00000      0.00000
      0.00000      0.00000      0.00000
      0.00369     -0.01049     -0.00221
      0.00000      0.00000      0.00000
     -0.00120      0.00011     -0.00073
      0.00000      0.00000      0.00000
      0.00000      0.00000      0.00000
      0.00000      0.00000      0.00000
      0.00000      0.00000      0.00000
     -0.00416     -0.00196     -0.00151
      0.00000      0.00000      0.00000
      0.00029      0.00055      0.00011
      0.00237     -0.00887     -0.00276
      0.02266     -0.02489      0.01259
     -0.12301      0.01132     -0.07807

 NEB: forces: par spring, perp REAL, dneb     0.705203    0.160885    0.000000
 NEB: distance to prev, next image, angle between     1.476226    1.335185  154.264852
 NEB: projections on to tangent (spring, REAL)    -0.705203   -0.001117

 stress matrix after NEB project (eV)
    -33.05313     -0.05631      0.27812
     -0.05631    -33.59985     -0.40803
      0.27812     -0.40803    -25.58861
  FORCES: max atom, RMS     0.035445    0.009632
  FORCE total and by dimension    0.160889    0.029319
  Stress total and by dimension   53.635157   33.599853
 OPT: skip step - force has converged

 reached required accuracy - stopping structural energy minimisation