 vasp.5.4.4.18Apr17-6-g9f103f2a35 (build Oct 20 2021 08:33:53) complex
 executed on             LinuxGNU date 2025.03.29  23:19:54

 INCAR:
 POTCAR:    PAW_PBE C 08Apr2002
 POTCAR:    PAW_PBE H 15Jun2001
 POTCAR:    PAW_PBE O 08Apr2002
 POTCAR:    PAW_PBE Si 05Jan2001
 POTCAR:    PAW_PBE W 08Apr2002
 POTCAR:    PAW_PBE C 08Apr2002
   VRHFIN =C: s2p2

   TITEL  = PAW_PBE C 08Apr2002
   POMASS =   12.011; ZVAL   =    4.000    mass and valenz
   ENMAX  =  400.000; ENMIN  =  300.000 eV

 POTCAR:    PAW_PBE H 15Jun2001
   VRHFIN =H: ultrasoft test

   TITEL  = PAW_PBE H 15Jun2001
   POMASS =    1.000; ZVAL   =    1.000    mass and valenz
   ENMAX  =  250.000; ENMIN  =  200.000 eV

 POTCAR:    PAW_PBE O 08Apr2002
   VRHFIN =O: s2p4

[...]

 POTCAR:    PAW_PBE Si 05Jan2001
   VRHFIN =Si: s2p2

   TITEL  = PAW_PBE Si 05Jan2001
   POMASS =   28.085; ZVAL   =    4.000    mass and valenz
   ENMAX  =  245.345; ENMIN  =  184.009 eV

 POTCAR:    PAW_PBE W 08Apr2002
   VRHFIN =W : 6s5d

   TITEL  = PAW_PBE W 08Apr2002
   POMASS =  183.850; ZVAL   =    6.000    mass and valenz
   ENMAX  =  223.057; ENMIN  =  167.293 eV

 Optimization of the real space projectors (new method)

 maximal supplied QI-value         = 25.13
 optimisation between [QCUT,QGAM] = [ 11.31, 22.87] = [ 35.82,146.48] Ry
 Optimized for a Real-space Cutoff    1.00 Angstroem

   l    n(q)    QCUT    max X(q) W(low)/X(q) W(high)/X(q)  e(spline)
   0      7    11.310   115.676    0.43E-03    0.13E-02    0.19E-06
   0      7    11.310    87.132    0.43E-03    0.13E-02    0.18E-06
   1      6    11.310     4.429    0.42E-03    0.74E-03    0.11E-06
   1      6    11.310     2.733    0.34E-03    0.55E-03    0.92E-07
 Optimization of the real space projectors (new method)

[...]

   l    n(q)    QCUT    max X(q) W(low)/X(q) W(high)/X(q)  e(spline)
   0      8    11.310   159.560    0.27E-03    0.30E-03    0.39E-07
   0      8    11.310   115.863    0.27E-03    0.30E-03    0.38E-07
   1      7    11.310    88.339    0.28E-03    0.28E-03    0.77E-07
   1      7    11.310    48.592    0.27E-03    0.27E-03    0.74E-07
 Optimization of the real space projectors (new method)

 maximal supplied QI-value         = 13.61
 optimisation between [QCUT,QGAM] = [ 11.43, 22.86] = [ 36.58,146.31] Ry
 Optimized for a Real-space Cutoff    1.56 Angstroem

   l    n(q)    QCUT    max X(q) W(low)/X(q) W(high)/X(q)  e(spline)
   2     10    11.429   130.855    0.22E-03    0.64E-03    0.11E-05
   2     10    11.429   114.007    0.22E-03    0.64E-03    0.11E-05
   0     11    11.429    84.709    0.39E-04    0.67E-04    0.23E-06
   0     11    11.429    49.163    0.35E-04    0.62E-04    0.21E-06
   1     10    11.429    15.765    0.84E-04    0.15E-03    0.24E-06
   1     10    11.429    10.638    0.58E-04    0.12E-03    0.19E-06

  PAW_PBE C 08Apr2002                   :
  PAW_PBE H 15Jun2001                   :
  PAW_PBE O 08Apr2002                   :
  PAW_PBE Si 05Jan2001                  :
  PAW_PBE W 08Apr2002                   :

 POSCAR:  C  H  O Si  W
  positions in direct lattice
  velocities in cartesian coordinates
 exchange correlation table for  LEXCH =        9
   RHO(1)=    0.500       N(1)  =     2000
   RHO(2)=  100.500       N(2)  =     4000

 VTST: version 3.2, (02/03/18)

 CHAIN: initializing optimizer

 OPT: Using Quick-Min optimizer
 OPT: QM, Init
 OPT: QM, MAXMOVE       0.200000
 OPT: QM, TIMESTEP      0.100000

 CHAIN: Read ICHAIN            0
 CHAIN: Running the NEB
 NEB:          SPRING     -5.000000
 NEB:          LCLIMB      T
 NEB:     LTANGENTOLD      F
 NEB:           LDNEB      F
 NEB:        LDNEBORG      F
 NEB:        LNEBCELL      F
 NEB:          EFIRST      0.000000
 NEB:           ELAST      0.000000

 POSCAR:  C  H  O Si  W
  positions in cartesian coordinates

 POSCAR:  C  H  O Si  W
  positions in cartesian coordinates

 ion  position               nearest neighbor table
   1  0.545  0.537  0.745-  48 1.10  47 1.46   2 1.69 270 1.96
   2  0.573  0.456  0.726-  50 1.10  49 1.10  47 1.18   1 1.69 270 2.21
   3  0.762  0.103  0.651- 125 0.97
   4  0.926  0.279  0.356-  73 0.98
   5  0.793  0.207  0.373- 108 0.97
   6  0.975  0.944  0.325- 117 0.97
   7  0.626  0.963  0.375- 119 0.98
   8  0.821  0.995  0.369- 137 0.97
   9  0.750  0.141  0.458- 175 0.98
  10  0.915  0.249  0.510- 180 0.97
  11  0.583  0.304  0.306- 185 0.97
  12  0.892  0.335  0.616-  91 0.98
  13  0.586  0.360  0.613- 136 0.97
  14  0.593  0.870  0.578- 178 0.99
  15  0.034  0.338  0.652- 184 0.97
  16  0.935  0.420  0.454- 173 0.98
  17  0.746  0.530  0.422-  87 1.00
  18  0.799  0.383  0.635- 165 0.97
  19  0.591  0.569  0.378-  99 0.99
  20  0.718  0.646  0.383- 122 0.99
  21  0.841  0.542  0.420- 128 0.98
  22  0.005  0.604  0.358- 133 0.97
  23  0.828  0.712  0.468- 174 0.99
  24  0.877  0.599  0.722-  53 0.97
  25  0.520  0.986  0.422- 135 0.99
  26  0.223  0.980  0.393- 176 1.00
  27  0.216  0.238  0.319- 191 0.99
  28  0.158  0.330  0.279- 182 0.97
  29  0.342  0.156  0.331- 183 0.98
  30  0.223  0.046  0.323- 190 0.97
  31  0.511  0.826  0.547- 193 0.97
  32  0.375  0.239  0.648-  78 0.97
  33  0.244  0.094  0.599- 129 0.98
  34  0.315  0.487  0.442-  52 0.99
  35  0.409  0.439  0.406- 141 0.98
  36  0.398  0.793  0.389- 179 0.97
  37  0.244  0.655  0.294- 187 0.97
  38  0.312  0.418  0.369- 188 0.98
  39  0.405  0.584  0.339- 189 0.97
  40  0.139  0.488  0.352- 181 0.98
  41  0.593  0.698  0.352-  82 0.97
  42  0.469  0.861  0.444- 192 0.99
  43  0.122  0.324  0.612- 101 0.97
  44  0.072  0.665  0.646- 132 0.97
  45  0.243  0.388  0.682- 177 0.97
  46  0.247  0.816  0.670- 186 0.97
  47  0.592  0.489  0.760-   2 1.18   1 1.46
  48  0.572  0.584  0.734-   1 1.10
  49  0.563  0.405  0.746-   2 1.10
  50  0.605  0.454  0.696-   2 1.10
  51  0.369  0.648  0.439- 224 1.66 259 1.68
  52  0.347  0.504  0.420-  34 0.99 259 1.67
  53  0.861  0.566  0.697-  24 0.97 230 1.64
  54  0.349  0.958  0.531- 235 1.68 268 1.69
  55  0.033  0.932  0.529- 250 1.63 261 1.66
  56  0.636  0.079  0.489- 228 1.60 217 1.65
  57  0.069  0.052  0.395- 216 1.64 208 1.65
  58  0.452  0.130  0.421- 233 1.65 214 1.65
  59  0.806  0.214  0.483- 232 1.67 229 1.69
  60  0.974  0.182  0.599- 210 1.63 240 1.65
[...]
 212  0.214  0.476  0.510- 172 1.61 171 1.63 131 1.66 168 1.66 223 3.10 256 3.14
 213  0.915  0.756  0.496-  96 1.65 174 1.65  80 1.66  85 1.66 226 2.99 234 3.03
 214  0.521  0.110  0.426- 107 1.64  58 1.65 135 1.66 115 1.67 245 3.08 228 3.12
 215  0.419  0.169  0.589-  78 1.64 195 1.65  95 1.68 155 1.69 268 3.14 255 3.14
 216  0.083  0.139  0.407-  57 1.64 138 1.65  83 1.65 151 1.66 209 3.11 208 3.13 262 3.14
 217  0.702  0.045  0.487-  90 1.64 159 1.65  56 1.65 175 1.66 228 3.09 218 3.10 252 3.15
 218  0.665  0.898  0.437-  89 1.53 159 1.66 119 1.66 150 1.67 264 2.83 251 3.06 217 3.10
 219  0.650  0.504  0.430-  99 1.65 157 1.65  87 1.67  93 1.68 227 3.07
 220  0.198  0.912  0.464- 130 1.50 176 1.64 153 1.66 109 1.67 238 3.01 235 3.06 261 3.07
 221  0.215  0.367  0.604-  77 1.63 172 1.63 101 1.64 177 1.64
 222  0.674  0.813  0.595- 178 1.62 110 1.64  92 1.68 200 1.71 249 2.90
 223  0.216  0.642  0.539- 170 1.63 163 1.63 196 1.65 131 1.65 238 3.09 212 3.10 267 3.12
 224  0.369  0.735  0.459-  67 1.65  98 1.66  51 1.66 179 1.68
 225  0.797  0.888  0.595- 134 1.66  92 1.66 103 1.67 199 1.68 234 2.86 226 2.99
 226  0.880  0.912  0.512-  66 1.60  85 1.62 103 1.65 111 1.65 213 2.99 225 2.99 250 3.05 241 3.13

 227  0.577  0.575  0.512-  93 1.58 160 1.63  94 1.63 127 1.65 237 3.00 219 3.07
 228  0.590  0.115  0.525-  56 1.60 115 1.61 152 1.62 142 1.65 255 2.85 217 3.09 239 3.11 214 3.12

[...]

 266  0.287  0.210  0.459- 167 1.63 116 1.63  61 1.66 146 1.67 244 3.03 262 3.12
 267  0.088  0.625  0.568- 156 1.63 132 1.63 102 1.64 163 1.65 263 3.09 223 3.12 243 3.15
 268  0.353  0.019  0.579- 155 1.63  63 1.66 202 1.69  54 1.69 235 2.38 254 2.74 215 3.14
 269  0.488  0.480  0.573- 127 1.64  71 1.66 121 1.68  79 1.68 246 2.97
 270  0.491  0.498  0.696- 204 1.73 118 1.94   1 1.96  71 1.99   2 2.21 246 3.10

  LATTYP: Found a simple orthorhombic cell.
 ALAT       =    18.1212369514
 B/A-ratio  =     1.2919258579
 C/A-ratio  =     1.4835282260

  Lattice vectors:

 A1 = (   0.0000000000, -18.1212369514,   0.0000000000)
 A2 = ( -23.4112945954,   0.0000000000,   0.0000000000)
 A3 = (   0.0000000000,   0.0000000000, -26.8833665073)

Analysis of symmetry for initial positions (statically):
 Subroutine PRICEL returns:
 Original cell was already a primitive cell.

 Routine SETGRP: Setting up the symmetry group for a
 simple orthorhombic supercell.

 Subroutine GETGRP returns: Found  1 space group operations
 (whereof  1 operations were pure point group operations)
 out of a pool of  8 trial point group operations.

The static configuration has the point symmetry C_1 .

Analysis of symmetry for dynamics (positions and initial velocities):
 Subroutine PRICEL returns:
 Original cell was already a primitive cell.

[...]

The dynamic configuration has the point symmetry C_1 .

Analysis of constrained symmetry for selective dynamics:
 Subroutine PRICEL returns:
 Original cell was already a primitive cell.

 Routine SETGRP: Setting up the symmetry group for a
 simple orthorhombic supercell.

 Subroutine GETGRP returns: Found  1 space group operations
 (whereof  1 operations were pure point group operations)
 out of a pool of  8 trial point group operations.

The constrained configuration has the point symmetry C_1 .

 Subroutine INISYM returns: Found  1 space group operations
 (whereof  1 operations are pure point group operations),
 and found     1 'primitive' translations

 KPOINTS: KPOINTS created by Atomic Simulation Env

Automatic generation of k-mesh.
Space group operators:
 irot       det(A)        alpha          n_x          n_y          n_z        tau_x        tau_y        tau_z
    1     1.000000     0.000000     1.000000     0.000000     0.000000     0.000000     0.000000     0.000000

 Subroutine IBZKPT returns following result:

 Found      5 irreducible k-points:

 Following reciprocal coordinates:
            Coordinates               Weight
  0.000000  0.000000  0.000000      1.000000
  0.333333  0.000000  0.000000      2.000000
  0.000000  0.333333  0.000000      2.000000
  0.333333  0.333333  0.000000      2.000000
 -0.333333  0.333333  0.000000      2.000000

 Following cartesian coordinates:
            Coordinates               Weight
  0.000000  0.000000  0.000000      1.000000
  0.014238  0.000000  0.000000      2.000000
  0.000000  0.018395  0.000000      2.000000
  0.014238  0.018395  0.000000      2.000000
 -0.014238  0.018395  0.000000      2.000000

 SYSTEM =  unknown system
 POSCAR =   C  H  O Si  W

 Startparameter for this run:
   NWRITE =      2    write-flag & timer
   PREC   = normal    normal or accurate (medium, high low for compatibility)
   ISTART =      0    job   : 0-new  1-cont  2-samecut
   ICHARG =      2    charge: 1-file 2-atom 10-const
   ISPIN  =      1    spin polarized calculation?
   LNONCOLLINEAR =      F non collinear calculations
   LSORBIT =      F    spin-orbit coupling
   INIWAV =      1    electr: 0-lowe 1-rand  2-diag
[...]
   0.440E+02 -.136E+02 0.191E+03   -.501E+02 0.171E+02 -.195E+03   0.618E+01 -.354E+01 0.405E+01   -.351E-04 0.458E-04 -.883E-04
   -.174E+01 0.498E+02 0.228E+03   0.110E+01 -.516E+02 -.236E+03   0.646E+00 0.182E+01 0.809E+01   -.144E-05 0.552E-04 -.137E-03
   0.670E+02 0.695E+01 -.688E+02   -.748E+02 -.722E+01 0.719E+02   0.770E+01 0.275E+00 -.304E+01   -.383E-04 -.426E-04 -.568E-04
   0.561E+02 -.769E+02 -.151E+03   -.608E+02 0.838E+02 0.152E+03   0.473E+01 -.689E+01 -.877E+00   0.275E-04 0.437E-04 -.223E-03
   0.150E+02 0.767E+02 -.106E+03   -.135E+02 -.846E+02 0.104E+03   -.150E+01 0.795E+01 0.125E+01   0.300E-04 0.386E-04 -.568E-04
   0.168E+02 0.171E+02 -.624E+01   -.222E+02 -.196E+02 0.107E+02   0.559E+01 0.252E+01 -.459E+01   0.110E-03 -.983E-05 -.304E-04
   0.282E+02 -.519E+02 0.519E+02   -.333E+02 0.563E+02 -.480E+02   0.525E+01 -.445E+01 -.402E+01   -.435E-04 0.209E-04 0.133E-04
   0.146E+02 -.262E+02 0.207E+03   -.167E+02 0.270E+02 -.215E+03   0.214E+01 -.795E+00 0.797E+01   0.366E-04 -.472E-04 -.597E-04
   -.767E+02 -.272E+02 0.198E+03   0.838E+02 0.283E+02 -.202E+03   -.723E+01 -.106E+01 0.394E+01   0.800E-04 -.191E-04 -.539E-04
   -.833E+02 -.367E+02 0.133E+03   0.903E+02 0.407E+02 -.133E+03   -.716E+01 -.403E+01 -.162E+00   0.774E-04 0.514E-07 -.418E-05
   -.102E+03 0.112E+02 0.154E+03   0.110E+03 -.131E+02 -.155E+03   -.796E+01 0.202E+01 0.105E+01   0.447E-04 -.436E-04 0.388E-04
   0.284E+00 -.695E+02 0.998E+02   0.101E+01 0.762E+02 -.957E+02   -.133E+01 -.693E+01 -.420E+01   -.167E-04 -.925E-04 -.599E-04
   -.323E+02 -.493E+02 0.218E+03   0.362E+02 0.538E+02 -.223E+03   -.406E+01 -.454E+01 0.559E+01   -.454E-04 0.686E-04 -.150E-03
   0.759E+02 0.226E+02 0.108E+03   -.818E+02 -.267E+02 -.110E+03   0.621E+01 0.436E+01 0.246E+01   -.146E-04 -.548E-04 -.919E-04
   0.499E+02 0.513E+02 -.110E+03   -.552E+02 -.575E+02 0.109E+03   0.529E+01 0.624E+01 0.172E+01   -.154E-04 0.422E-04 -.116E-03
   -.152E+02 -.706E+02 -.195E+03   0.173E+02 0.768E+02 0.200E+03   -.208E+01 -.620E+01 -.532E+01   0.248E-04 0.271E-04 -.110E-03
   0.164E+02 0.145E+02 -.227E+03   -.183E+02 -.166E+02 0.235E+03   0.186E+01 0.212E+01 -.793E+01   -.369E-05 0.151E-05 -.189E-03
   0.236E+02 -.747E+02 -.198E+03   -.235E+02 0.816E+02 0.203E+03   -.129E+00 -.691E+01 -.476E+01   -.202E-05 -.227E-04 -.101E-03
   -.506E+02 0.491E+01 -.177E+03   0.528E+02 -.361E+01 0.180E+03   -.226E+01 -.128E+01 -.347E+01   -.135E-03 0.256E-03 -.526E-05
   -.356E+02 -.496E+02 -.145E+03   0.386E+02 0.539E+02 0.144E+03   -.300E+01 -.434E+01 0.145E+01   -.590E-04 -.146E-03 0.614E-04
   -.728E+01 0.724E+02 -.158E+03   0.608E+01 -.772E+02 0.161E+03   0.121E+01 0.483E+01 -.275E+01   -.203E-04 -.450E-04 0.177E-04
   -.587E+02 0.318E+02 -.102E+03   0.625E+02 -.320E+02 0.983E+02   -.384E+01 0.267E+00 0.416E+01   0.133E-03 0.404E-04 -.172E-03
   -.158E+03 0.503E+02 0.328E+03   0.172E+03 -.617E+02 -.318E+03   -.141E+02 0.115E+02 -.947E+01   0.450E-03 -.443E-03 0.114E-04
   -.180E+03 0.421E+02 0.375E+03   0.208E+03 -.578E+02 -.385E+03   -.279E+02 0.163E+02 0.957E+01   0.385E-03 -.162E-03 0.166E-03
   -.175E+03 0.145E+03 -.952E+03   0.172E+03 -.184E+03 0.953E+03   0.278E+01 0.391E+02 -.665E+00   -.457E-04 0.197E-03 -.919E-03
   -.346E+02 0.246E+02 0.770E+02   0.575E+02 -.342E+02 -.107E+03   -.230E+02 0.957E+01 0.295E+02   0.570E-03 -.417E-03 -.504E-03
   -.105E+03 0.100E+03 -.392E+03   0.112E+03 -.110E+03 0.404E+03   -.669E+01 0.994E+01 -.125E+02   0.308E-04 -.254E-03 -.346E-03
   -.621E+02 -.251E+02 0.155E+03   0.552E+02 0.231E+02 -.176E+03   0.914E+01 0.105E+01 0.212E+02   0.119E-03 -.246E-04 -.450E-03
   -.541E+02 0.114E+03 0.657E+03   0.718E+02 -.124E+03 -.662E+03   -.179E+02 0.103E+02 0.587E+01   -.240E-04 0.296E-03 -.108E-02
   0.612E+02 0.183E+03 0.461E+03   -.686E+02 -.194E+03 -.450E+03   0.748E+01 0.109E+02 -.108E+02   -.670E-04 0.287E-03 -.744E-03
   0.764E+02 -.838E+02 0.267E+01   -.914E+02 0.830E+02 0.129E+02   0.154E+02 0.753E+00 -.158E+02   0.270E-03 0.300E-03 -.507E-03
   0.104E+03 0.682E+02 -.777E+03   -.123E+03 -.757E+02 0.789E+03   0.186E+02 0.745E+01 -.126E+02   -.174E-03 0.274E-03 -.626E-03
[...]
   -.496E+02 -.138E+02 0.208E+03   0.491E+02 0.126E+02 -.210E+03   0.461E+00 0.758E+00 0.890E+00   0.986E-04 -.156E-03 -.279E-03
   0.718E+02 -.433E+02 -.161E+03   -.661E+02 0.413E+02 0.158E+03   -.570E+01 0.203E+01 0.338E+01   -.242E-03 0.119E-03 -.481E-03
   -.891E+02 -.222E+02 0.373E+03   0.892E+02 0.201E+02 -.375E+03   -.171E+00 0.201E+01 0.173E+01   0.306E-03 -.239E-03 0.630E-04
   -.548E+02 0.972E+02 -.273E+03   0.545E+02 -.974E+02 0.275E+03   0.236E+00 0.183E+00 -.165E+01   0.285E-03 -.200E-03 -.772E-03
   -.112E+02 0.598E+00 0.265E+02   0.119E+02 -.385E+01 -.289E+02   -.100E+01 0.968E+01 0.187E+01   -.638E-04 -.128E-03 -.418E-03
   -.293E+02 0.849E+02 0.453E+03   0.292E+02 -.833E+02 -.454E+03   -.429E-01 -.174E+01 0.155E+01   0.632E-04 0.177E-03 -.654E-03
   0.922E+02 -.501E+01 -.303E+02   -.909E+02 0.721E+01 0.306E+02   -.131E+01 -.234E+01 -.636E+00   -.310E-03 -.101E-03 -.381E-03
   0.115E+03 0.187E+02 0.142E+03   -.109E+03 -.115E+02 -.146E+03   -.282E+02 -.231E+02 0.860E+01   -.240E-03 -.562E-04 -.405E-03
   -.113E+02 0.990E+02 -.417E+03   0.131E+02 -.975E+02 0.417E+03   -.183E+01 -.155E+01 0.446E+00   -.496E-04 -.766E-05 -.343E-03
   -.319E+02 0.303E+02 0.122E+03   0.319E+02 -.311E+02 -.122E+03   -.210E+00 0.817E+00 -.112E+01   0.251E-03 0.324E-03 -.587E-03
   0.554E+02 -.172E+02 -.370E+03   -.559E+02 0.180E+02 0.371E+03   0.493E+00 -.776E+00 -.858E+00   -.473E-04 -.849E-04 -.494E-03
   0.544E+02 -.596E+02 -.319E+03   -.554E+02 0.550E+02 0.319E+03   0.104E+01 0.460E+01 0.397E-03   0.233E-03 0.459E-04 -.190E-03
   0.994E+02 0.714E+02 -.215E+03   -.956E+02 -.683E+02 0.217E+03   -.390E+01 -.312E+01 -.220E+01   -.462E-03 -.130E-03 -.108E-02
   0.783E+02 0.681E+02 -.815E+03   -.774E+02 -.682E+02 0.817E+03   -.925E+00 0.934E-01 -.220E+01   -.623E-03 -.539E-03 0.162E-03
   0.319E+03 -.223E+03 -.117E+03   -.909E-12 -.199E-12 -.557E-11   -.319E+03 0.224E+03 0.118E+03   -.458E-02 0.600E-02 -.110E+00

 POSITION                                       TOTAL-FORCE (eV/Angst)
     12.76398      9.72992     20.04007         0.007254     -0.011896     -0.008024
     13.41841      8.26828     19.50933         0.001691     -0.012353     -0.017367
     17.82779      1.86379     17.50940        -0.001907     -0.003556      0.005479
     21.68887      5.04983      9.57948         0.102096      0.073091     -0.026569
     18.57311      3.75615     10.03977         0.038224      0.113640      0.044984
     22.81522     17.09936      8.74523         0.109172      0.056962      0.028849
     14.64921     17.45932     10.08748         0.054545     -0.004226     -0.059939
     19.20987     18.03075      9.91976         0.120704      0.024771     -0.001568
     17.55831      2.55833     12.31361        -0.109414     -0.221972     -0.130793
     21.43277      4.52032     13.69780        -0.003611      0.000036     -0.001890
     13.66032      5.51363      8.22435        -0.101098     -0.128036      0.040723
     20.87895      6.06802     16.56339        -0.012589      0.007760     -0.009019
     13.72376      6.52852     16.48293        -0.004042     -0.004588      0.006258
     13.89424     15.77324     15.54133        -0.001902     -0.003365     -0.005852
      0.78669      6.12274     17.53612        -0.000579     -0.005386     -0.001166
     21.89589      7.60212     12.20778        -0.087838      0.134578      0.069903
     17.46807      9.60991     11.35790        -0.320770      0.161240     -0.039605
     18.71050      6.93855     17.08204         0.000482     -0.006474      0.006492
     13.83846     10.30524     10.16285         0.096788     -0.183428      0.062026
     16.81947     11.70510     10.30871        -0.028655      0.242865     -0.020428
     19.69248      9.82944     11.28016        -0.105182     -0.100622      0.013304
      0.11154     10.94157      9.61829         0.110927     -0.008106     -0.030787
     19.39295     12.90878     12.57986         0.234434     -0.037269     -0.055374
     20.52743     10.84908     19.39912        -0.002164     -0.007932     -0.007708
     12.17365     17.85965     11.33680         0.013070      0.130003     -0.100455
      5.22293     17.76162     10.57067        -0.010782     -0.353973      0.118593
      5.06559      4.31016      8.58199         0.179561     -0.199111      0.069458
      3.68730      5.97650      7.50000         0.014927     -0.078783      0.117440
      7.99605      2.81941      8.89229         0.085389     -0.089939      0.064100
      5.21407      0.82921      8.67630         0.003757      0.018296      0.149346
     11.96693     14.97023     14.69850        -0.001092     -0.000431     -0.001344
      8.78323      4.33110     17.41074         0.006999     -0.022638     -0.001244
      5.71432      1.69699     16.09238        -0.006487      0.000262      0.003206
      7.38348      8.82752     11.89413         0.230004      0.094603     -0.172146
      9.57419      7.95042     10.90633         0.117841     -0.108008     -0.119567
      9.32939     14.37220     10.45190         0.054978      0.001827      0.127124
      5.71709     11.87720      7.91250        -0.105134     -0.016888      0.039254
      7.29827      7.58330      9.92689        -0.165938     -0.091534     -0.011818
      9.49268     10.58787      9.10862        -0.110579      0.038484     -0.006439
      3.26254      8.84269      9.46105        -0.024401     -0.204606     -0.122139
     13.88920     12.64839      9.47364        -0.128625     -0.095809      0.163764
     10.98006     15.61013     11.93160         0.311452      0.332006      0.161224
      2.85592      5.87969     16.46116         0.003056      0.002271      0.000680
      1.68540     12.05751     17.35890         0.011266      0.014599      0.007642
      5.68619      7.03603     18.34566        -0.002987     -0.005705      0.001300
      5.77797     14.78442     18.00648        -0.002351     -0.006897     -0.003086
     13.86818      8.85659     20.42784         0.013693     -0.018599     -0.026588
     13.39024     10.57934     19.72117         0.004747     -0.009084     -0.008869
     13.18664      7.34212     20.04792         0.004211     -0.011141     -0.029199
     14.15996      8.22095     18.70497        -0.008751     -0.002093     -0.032805
      8.63740     11.74900     11.80180        -0.227616      0.123809     -0.202135
      8.11940      9.13372     11.30145        -0.090364      0.609113      0.027918
     20.15036     10.25714     18.73113        -0.002363      0.004877     -0.005518
      8.16520     17.35956     14.27127        -0.000965     -0.000263      0.000949
      0.77632     16.89139     14.20986         0.001652     -0.000272     -0.000776
     14.89791      1.42920     13.15609         2.312141     -0.981513     -0.106339
      1.60710      0.94711     10.62191        -0.310722      0.487667      0.114521
     10.57955      2.34783     11.30707         0.055636      0.071677     -0.128256
     18.86679      3.87161     12.98914         0.530282     -0.040716     -0.199636
     22.79298      3.29128     16.09228        -0.006298     -0.003682     -0.003460
[...]
      5.71814      6.71222     11.31648         0.023318     -0.124327     -0.108488
     15.41693      5.98005     12.10687        -0.140059     -0.471568     -0.862116
     10.78669      5.74824     14.21504        -0.003891      0.005371      0.000996
      7.89661     10.69049     10.72869        -0.131337     -0.075731     -0.061065
     18.81051      8.63267     15.58856        -0.001106     -0.007160     -0.000018
      1.62029     16.28844     12.91761        -0.360318      6.431740     -0.520060
      4.96103      2.61769     10.04353        -0.071902     -0.040594      0.057324
      1.83153      8.95162     13.29887         0.019611     -0.141022     -0.299235
     13.05344     15.44546     12.76235       -22.321531    -15.850019      4.720963
     16.81932     10.58998     16.38792         0.002232     -0.000356     -0.007200
      6.71066      3.80730     12.34244        -0.222585      0.019391     -0.778940
      2.05612     11.33184     15.26210        -0.003908      0.006312      0.000995
      8.27251      0.33973     15.55516         0.002191      0.004737     -0.003968
     11.42486      8.69657     15.41485        -0.003895     -0.002406     -0.004043
     11.49871      9.02569     18.72161         0.001807      0.003059     -0.010214
    total drift:                                0.271262      0.295649      0.263754

  FREE ENERGIE OF THE ION-ELECTRON SYSTEM (eV)
  free  energy   TOTEN  =     -1851.99936682 eV

  energy  without entropy=    -1851.99936586  energy(sigma->0) =    -1851.99936634

 NEB: the previous image is higher in energy: F
 NEB: the next image is higher in energy    : F
 NEB: image is at an extrema
 NEB: diff energy (min, max):     0.964136    1.472309

 NEB: Tangent
     -0.19236      0.02464     -0.31013
      0.22699      0.09347      0.41537
     -0.00020      0.00050      0.00028
      0.00000      0.00000      0.00000
      0.00000      0.00000      0.00000
      0.00000      0.00000      0.00000
      0.00000      0.00000      0.00000
      0.00000      0.00000      0.00000
      0.00000      0.00000      0.00000
     -0.00012     -0.00000      0.00018
      0.00000      0.00000      0.00000
     -0.00035      0.00014      0.00027
      0.00304     -0.00097      0.00171
     -0.00059     -0.00004      0.00013
     -0.00018     -0.00023      0.00034
      0.00000      0.00000      0.00000
      0.00000      0.00000      0.00000
     -0.00045      0.00021     -0.00005
      0.00000      0.00000      0.00000
      0.00000      0.00000      0.00000
      0.00000      0.00000      0.00000
      0.00000      0.00000      0.00000
      0.00000      0.00000      0.00000
     -0.00068     -0.00020      0.00009
      0.00000      0.00000      0.00000
      0.00000      0.00000      0.00000
      0.00000      0.00000      0.00000
      0.00000      0.00000      0.00000
      0.00000      0.00000      0.00000
      0.00000      0.00000      0.00000
     -0.00035     -0.00013     -0.00019
      0.00266      0.00123      0.00260
     -0.00055      0.00018      0.00021
      0.00000      0.00000      0.00000
      0.00000      0.00000      0.00000
      0.00000      0.00000      0.00000
      0.00000      0.00000      0.00000
      0.00000      0.00000      0.00000
      0.00000      0.00000      0.00000
      0.00000      0.00000      0.00000
      0.00000      0.00000      0.00000
      0.00000      0.00000      0.00000
     -0.00018      0.00007      0.00021
     -0.00032      0.00001     -0.00001
      0.00136     -0.00065     -0.00008
     -0.00064     -0.00023      0.00034
      0.49941     -0.43546     -0.17811
     -0.07538      0.01707      0.02184
     -0.13246     -0.00081      0.02326
      0.00571     -0.00096      0.19046
      0.00000      0.00000      0.00000
      0.00000      0.00000      0.00000
     -0.00028     -0.00009     -0.00045
      0.00000      0.00019      0.00045
      0.00002     -0.00011      0.00002
      0.00000      0.00000      0.00000
      0.00000      0.00000      0.00000
      0.00000      0.00000      0.00000
      0.00000      0.00000      0.00000
     -0.00019      0.00003     -0.00006
[...]
      0.00000      0.00000      0.00000
      0.00000      0.00000      0.00000
      0.00081     -0.00077      0.00012
      0.00000      0.00000      0.00000
     -0.00074      0.00015      0.00018
      0.00000      0.00000      0.00000
      0.00000      0.00000      0.00000
      0.00000      0.00000      0.00000
      0.00000      0.00000      0.00000
     -0.00204      0.00004      0.00084
      0.00000      0.00000      0.00000
     -0.00003      0.00022      0.00003
     -0.00089      0.00131      0.00001
      0.01592     -0.00865      0.00946
     -0.16874      0.13058     -0.11242

 NEB: forces: par spring, perp REAL, dneb     1.717625    0.156625    0.000000
 NEB: distance to prev, next image, angle between     0.548485    0.892010  107.546880
 NEB: projections on to tangent (spring, REAL)     1.717625    0.006070

 stress matrix after NEB project (eV)
    -32.46135      0.05394      0.29315
      0.05394    -32.97792     -0.07832
      0.29315     -0.07832    -24.86109
  FORCES: max atom, RMS     0.048082    0.009539
  FORCE total and by dimension    0.156742    0.038580
  Stress total and by dimension   52.531389   32.977923
 OPT: skip step - force has converged

 reached required accuracy - stopping structural energy minimisation
 writing wavefunctions