 vasp.5.4.4.18Apr17-6-g9f103f2a35 (build Oct 20 2021 08:33:53) complex
 executed on             LinuxGNU date 2024.03.20  01:55:00

 INCAR:
 POTCAR:    PAW_PBE C 08Apr2002
 POTCAR:    PAW_PBE H 15Jun2001
 POTCAR:    PAW_PBE O 08Apr2002
 POTCAR:    PAW_PBE Si 05Jan2001
 POTCAR:    PAW_PBE W 08Apr2002
 POTCAR:    PAW_PBE C 08Apr2002
   VRHFIN =C: s2p2

   TITEL  = PAW_PBE C 08Apr2002
   POMASS =   12.011; ZVAL   =    4.000    mass and valenz
   ENMAX  =  400.000; ENMIN  =  300.000 eV

 POTCAR:    PAW_PBE H 15Jun2001
   VRHFIN =H: ultrasoft test

   TITEL  = PAW_PBE H 15Jun2001
   POMASS =    1.000; ZVAL   =    1.000    mass and valenz
   ENMAX  =  250.000; ENMIN  =  200.000 eV

 POTCAR:    PAW_PBE O 08Apr2002
   VRHFIN =O: s2p4

[...]

 POTCAR:    PAW_PBE Si 05Jan2001
   VRHFIN =Si: s2p2

   TITEL  = PAW_PBE Si 05Jan2001
   POMASS =   28.085; ZVAL   =    4.000    mass and valenz
   ENMAX  =  245.345; ENMIN  =  184.009 eV

 POTCAR:    PAW_PBE W 08Apr2002
   VRHFIN =W : 6s5d

   TITEL  = PAW_PBE W 08Apr2002
   POMASS =  183.850; ZVAL   =    6.000    mass and valenz
   ENMAX  =  223.057; ENMIN  =  167.293 eV

 Optimization of the real space projectors (new method)

 maximal supplied QI-value         = 25.13
 optimisation between [QCUT,QGAM] = [ 11.31, 22.87] = [ 35.82,146.48] Ry
 Optimized for a Real-space Cutoff    1.00 Angstroem

   l    n(q)    QCUT    max X(q) W(low)/X(q) W(high)/X(q)  e(spline)
   0      7    11.310   115.676    0.43E-03    0.13E-02    0.19E-06
   0      7    11.310    87.132    0.43E-03    0.13E-02    0.18E-06
   1      6    11.310     4.429    0.42E-03    0.74E-03    0.11E-06
   1      6    11.310     2.733    0.34E-03    0.55E-03    0.92E-07
 Optimization of the real space projectors (new method)

[...]

   l    n(q)    QCUT    max X(q) W(low)/X(q) W(high)/X(q)  e(spline)
   0      8    11.310   159.560    0.27E-03    0.30E-03    0.39E-07
   0      8    11.310   115.863    0.27E-03    0.30E-03    0.38E-07
   1      7    11.310    88.339    0.28E-03    0.28E-03    0.77E-07
   1      7    11.310    48.592    0.27E-03    0.27E-03    0.74E-07
 Optimization of the real space projectors (new method)

 maximal supplied QI-value         = 13.61
 optimisation between [QCUT,QGAM] = [ 11.43, 22.86] = [ 36.58,146.31] Ry
 Optimized for a Real-space Cutoff    1.56 Angstroem

   l    n(q)    QCUT    max X(q) W(low)/X(q) W(high)/X(q)  e(spline)
   2     10    11.429   130.855    0.22E-03    0.64E-03    0.11E-05
   2     10    11.429   114.007    0.22E-03    0.64E-03    0.11E-05
   0     11    11.429    84.709    0.39E-04    0.67E-04    0.23E-06
   0     11    11.429    49.163    0.35E-04    0.62E-04    0.21E-06
   1     10    11.429    15.765    0.84E-04    0.15E-03    0.24E-06
   1     10    11.429    10.638    0.58E-04    0.12E-03    0.19E-06

  PAW_PBE C 08Apr2002                   :
  PAW_PBE H 15Jun2001                   :
  PAW_PBE O 08Apr2002                   :
  PAW_PBE Si 05Jan2001                  :
  PAW_PBE W 08Apr2002                   :

 POSCAR: C  H  O  Si W
  positions in direct lattice
  velocities in cartesian coordinates
 exchange correlation table for  LEXCH =        9
   RHO(1)=    0.500       N(1)  =     2000
   RHO(2)=  100.500       N(2)  =     4000

 VTST: version 3.2, (02/03/18)

 CHAIN: initializing optimizer

 OPT: Using VASP QUASI-newton optimizer
 CHAIN: Read ICHAIN            0

 POSCAR: C  H  O  Si W
  positions in direct lattice
  velocities in cartesian coordinates

 ion  position               nearest neighbor table
   1  0.561  0.460  0.722-  49 1.11   3 1.51 276 1.91
   2  0.509  0.562  0.810-  54 1.09  50 1.09   4 1.34
   3  0.580  0.394  0.752-  52 1.10  51 1.10  53 1.11   1 1.51
   4  0.518  0.627  0.788-  56 1.09  55 1.09   2 1.34
   5  0.761  0.103  0.651- 131 0.97
   6  0.926  0.279  0.356-  79 0.98
   7  0.793  0.207  0.373- 114 0.97
   8  0.975  0.944  0.325- 123 0.97
   9  0.626  0.963  0.375- 125 0.98
  10  0.821  0.995  0.369- 143 0.97
  11  0.750  0.141  0.458- 181 0.98
  12  0.915  0.249  0.509- 186 0.97
  13  0.583  0.304  0.306- 191 0.97
  14  0.891  0.335  0.616-  97 0.98
  15  0.585  0.360  0.614- 142 0.97
  16  0.593  0.871  0.578- 184 0.99
  17  0.034  0.338  0.652- 190 0.97
  18  0.935  0.420  0.454- 179 0.98
  19  0.746  0.530  0.422-  93 1.00
  20  0.798  0.382  0.635- 171 0.97
  21  0.591  0.569  0.378- 105 0.99
  22  0.718  0.646  0.383- 128 0.99
  23  0.841  0.542  0.420- 134 0.98
  24  0.005  0.604  0.358- 139 0.97
  25  0.828  0.712  0.468- 180 0.99
  26  0.878  0.599  0.721-  59 0.97
  27  0.520  0.986  0.422- 141 0.99
  28  0.223  0.980  0.393- 182 1.00
  29  0.216  0.238  0.319- 197 0.99
  30  0.158  0.330  0.279- 188 0.97
  31  0.342  0.156  0.331- 189 0.98
  32  0.223  0.046  0.323- 196 0.97
  33  0.512  0.823  0.547- 199 0.97
  34  0.383  0.243  0.647-  84 0.97
  35  0.244  0.093  0.598- 135 0.98
  36  0.315  0.487  0.442-  58 0.99
  37  0.409  0.439  0.406- 147 0.98
  38  0.398  0.793  0.389- 185 0.97
  39  0.244  0.655  0.294- 193 0.97
  40  0.312  0.418  0.369- 194 0.98
  41  0.405  0.584  0.339- 195 0.97
  42  0.139  0.488  0.352- 187 0.98
  43  0.593  0.698  0.352-  88 0.97
  44  0.469  0.861  0.444- 198 0.99
  45  0.122  0.323  0.612- 107 0.97
  46  0.073  0.665  0.646- 138 0.97
  47  0.243  0.384  0.682- 183 0.97
  48  0.244  0.814  0.669- 192 0.97
  49  0.594  0.504  0.717-   1 1.11
  50  0.465  0.542  0.817-   2 1.09
  51  0.603  0.409  0.787-   3 1.10
  52  0.543  0.359  0.762-   3 1.10
  53  0.609  0.360  0.730-   3 1.11
  54  0.544  0.525  0.821-   2 1.09
  55  0.562  0.646  0.780-   4 1.09
  56  0.484  0.663  0.776-   4 1.09
  57  0.369  0.648  0.439- 230 1.66 265 1.68
  58  0.347  0.504  0.420-  36 0.99 265 1.67
  59  0.861  0.566  0.697-  26 0.97 236 1.64
  60  0.349  0.954  0.531- 241 1.68 274 1.70
[...]
 218  0.214  0.476  0.510- 178 1.61 177 1.63 137 1.66 174 1.66 229 3.10 262 3.14
 219  0.915  0.756  0.496- 102 1.65 180 1.65  86 1.65  91 1.66 232 2.99 240 3.03
 220  0.521  0.110  0.426- 113 1.64  64 1.65 141 1.66 121 1.67 251 3.08 234 3.12
 221  0.419  0.166  0.589-  84 1.64 201 1.65 101 1.68 161 1.69 274 3.14 261 3.15
 222  0.083  0.139  0.407-  63 1.64 144 1.65  89 1.65 157 1.66 215 3.11 214 3.13 268 3.14
 223  0.702  0.045  0.487-  96 1.64 165 1.65  62 1.65 181 1.66 234 3.09 224 3.10 258 3.15
 224  0.665  0.898  0.437-  95 1.53 165 1.66 125 1.66 156 1.67 270 2.83 257 3.06 223 3.10
 225  0.650  0.504  0.430- 105 1.65 163 1.65  93 1.67  99 1.68 233 3.06
 226  0.198  0.912  0.464- 136 1.50 182 1.64 159 1.66 115 1.67 244 3.01 241 3.05 267 3.07
 227  0.214  0.366  0.604-  83 1.63 178 1.64 107 1.64 183 1.65
 228  0.674  0.813  0.594- 184 1.62 116 1.64  98 1.68 206 1.71 255 2.90
 229  0.217  0.641  0.538- 169 1.63 176 1.63 202 1.65 137 1.65 244 3.09 218 3.10 273 3.12
 230  0.369  0.735  0.459-  73 1.65  57 1.66 104 1.67 185 1.68
 231  0.797  0.888  0.596- 140 1.66  98 1.66 109 1.67 205 1.68 240 2.86 232 2.99 258 3.15
 232  0.880  0.912  0.512-  72 1.60  91 1.62 109 1.65 117 1.65 219 2.99 231 2.99 256 3.05 247 3.13

 233  0.575  0.573  0.511-  99 1.58 100 1.62 166 1.62 133 1.65 243 3.01 225 3.06 275 3.12
 234  0.590  0.115  0.525-  62 1.60 121 1.61 158 1.63 148 1.65 261 2.86 223 3.09 245 3.12 220 3.12

[...]

 272  0.287  0.210  0.459- 173 1.63 122 1.63  67 1.66 152 1.67 250 3.03 268 3.12
 273  0.088  0.626  0.568- 162 1.63 138 1.63 108 1.64 169 1.65 269 3.09 229 3.12 249 3.14
 274  0.354  0.015  0.579- 161 1.63  69 1.66 208 1.69  60 1.70 241 2.38 260 2.76 221 3.14
 275  0.487  0.477  0.569- 133 1.64  77 1.66 127 1.67  85 1.68 252 3.03 233 3.12 276 3.18
 276  0.492  0.479  0.687- 210 1.72   1 1.91  77 1.96 124 1.97 252 3.12 275 3.18

  LATTYP: Found a simple orthorhombic cell.
 ALAT       =    18.1212369514
 B/A-ratio  =     1.2919258579
 C/A-ratio  =     1.4835282260

  Lattice vectors:

 A1 = (   0.0000000000, -18.1212369514,   0.0000000000)
 A2 = ( -23.4112945954,   0.0000000000,   0.0000000000)
 A3 = (   0.0000000000,   0.0000000000, -26.8833665073)

Analysis of symmetry for initial positions (statically):
 Subroutine PRICEL returns:
 Original cell was already a primitive cell.

 Routine SETGRP: Setting up the symmetry group for a
 simple orthorhombic supercell.

 Subroutine GETGRP returns: Found  1 space group operations
 (whereof  1 operations were pure point group operations)
 out of a pool of  8 trial point group operations.

The static configuration has the point symmetry C_1 .

Analysis of symmetry for dynamics (positions and initial velocities):
 Subroutine PRICEL returns:
 Original cell was already a primitive cell.

[...]

The dynamic configuration has the point symmetry C_1 .

Analysis of constrained symmetry for selective dynamics:
 Subroutine PRICEL returns:
 Original cell was already a primitive cell.

 Routine SETGRP: Setting up the symmetry group for a
 simple orthorhombic supercell.

 Subroutine GETGRP returns: Found  1 space group operations
 (whereof  1 operations were pure point group operations)
 out of a pool of  8 trial point group operations.

The constrained configuration has the point symmetry C_1 .

 Subroutine INISYM returns: Found  1 space group operations
 (whereof  1 operations are pure point group operations),
 and found     1 'primitive' translations

 KPOINTS: KPOINTS created by Atomic Simulation Env

Automatic generation of k-mesh.
Space group operators:
 irot       det(A)        alpha          n_x          n_y          n_z        tau_x        tau_y        tau_z
    1     1.000000     0.000000     1.000000     0.000000     0.000000     0.000000     0.000000     0.000000

 Subroutine IBZKPT returns following result:

 Found      5 irreducible k-points:

 Following reciprocal coordinates:
            Coordinates               Weight
  0.000000  0.000000  0.000000      1.000000
  0.333333  0.000000  0.000000      2.000000
  0.000000  0.333333  0.000000      2.000000
  0.333333  0.333333  0.000000      2.000000
 -0.333333  0.333333  0.000000      2.000000

 Following cartesian coordinates:
            Coordinates               Weight
  0.000000  0.000000  0.000000      1.000000
  0.014238  0.000000  0.000000      2.000000
  0.000000  0.018395  0.000000      2.000000
  0.014238  0.018395  0.000000      2.000000
 -0.014238  0.018395  0.000000      2.000000

 SYSTEM =  unknown system
 POSCAR =  C  H  O  Si W

 Startparameter for this run:
   NWRITE =      2    write-flag & timer
   PREC   = normal    normal or accurate (medium, high low for compatibility)
   ISTART =      0    job   : 0-new  1-cont  2-samecut
   ICHARG =      2    charge: 1-file 2-atom 10-const
   ISPIN  =      1    spin polarized calculation?
   LNONCOLLINEAR =      F non collinear calculations
   LSORBIT =      F    spin-orbit coupling
   INIWAV =      1    electr: 0-lowe 1-rand  2-diag
   LASPH  =      T    aspherical Exc in radial PAW
   METAGGA=      F    non-selfconsistent MetaGGA calc.

 Electronic Relaxation 1
   ENCUT  =  500.0 eV  36.75 Ry    6.06 a.u.  42.68 33.04 49.01*2*pi/ulx,y,z
   ENINI  =  500.0     initial cutoff
   ENAUG  =  644.9 eV  augmentation charge cutoff
   NELM   =     60;   NELMIN=  2; NELMDL=  0     # of ELM steps
   EDIFF  = 0.1E-03   stopping-criterion for ELM
[...]
   -.847E+02 0.136E+03 -.546E+03   0.846E+02 -.138E+03 0.547E+03   0.788E-01 0.134E+01 -.974E+00   -.821E-04 -.869E-05 -.736E-03
   -.379E+01 -.143E+03 -.476E+03   0.373E+01 0.143E+03 0.476E+03   0.488E-01 -.659E+00 0.329E+00   0.885E-04 -.523E-04 -.775E-03
   0.375E+02 0.579E+01 -.216E+03   -.410E+02 -.829E+01 0.223E+03   0.351E+01 0.253E+01 -.719E+01   -.171E-05 -.233E-04 -.631E-04
   0.964E+02 0.274E+02 0.131E+03   -.104E+03 -.310E+02 -.130E+03   0.737E+01 0.362E+01 -.921E+00   0.162E-04 0.926E-05 0.719E-05
   0.275E+02 0.736E+02 0.168E+03   -.298E+02 -.810E+02 -.171E+03   0.240E+01 0.751E+01 0.249E+01   0.468E-04 0.473E-06 0.372E-05
   0.833E+02 0.519E+02 0.179E+03   -.905E+02 -.548E+02 -.181E+03   0.733E+01 0.292E+01 0.253E+01   0.137E-04 0.381E-05 -.349E-04
   0.482E+02 -.601E+02 0.163E+03   -.538E+02 0.658E+02 -.164E+03   0.572E+01 -.579E+01 0.116E+01   -.310E-05 0.806E-05 -.418E-04
   0.930E+02 0.257E+02 0.148E+03   -.101E+03 -.271E+02 -.149E+03   0.814E+01 0.144E+01 0.300E+00   0.419E-04 0.173E-04 -.326E-04
   -.670E+01 -.674E+02 0.389E+02   0.898E+01 0.744E+02 -.364E+02   -.236E+01 -.718E+01 -.261E+01   0.272E-04 -.590E-05 0.336E-04
   0.241E+02 -.875E+02 -.110E+02   -.242E+02 0.959E+02 0.112E+02   0.163E+00 -.840E+01 -.176E+00   0.213E-04 0.103E-04 0.557E-04
   -.374E+02 -.788E+02 0.194E+03   0.395E+02 0.858E+02 -.197E+03   -.220E+01 -.716E+01 0.348E+01   -.151E-04 0.181E-04 -.639E-04
   0.540E+02 -.442E+02 -.842E+02   -.596E+02 0.491E+02 0.808E+02   0.560E+01 -.498E+01 0.344E+01   0.519E-04 -.234E-04 -.881E-04
   0.881E+01 -.478E+02 -.131E+03   -.125E+02 0.548E+02 0.133E+03   0.374E+01 -.703E+01 -.225E+01   -.140E-04 -.167E-04 -.970E-05
   0.602E+02 -.121E+02 -.712E+02   -.671E+02 0.106E+02 0.679E+02   0.694E+01 0.154E+01 0.326E+01   -.741E-05 0.418E-04 0.979E-04
   -.257E+01 -.843E+02 -.190E+03   0.269E+01 0.915E+02 0.194E+03   -.127E+00 -.716E+01 -.435E+01   0.131E-04 0.589E-05 -.120E-03
   -.344E+02 0.208E+02 0.985E+02   0.392E+02 -.256E+02 -.103E+03   -.492E+01 0.497E+01 0.435E+01   0.160E-04 0.620E-05 0.652E-04
   -.752E+02 0.278E+02 0.966E+02   0.817E+02 -.309E+02 -.962E+02   -.678E+01 0.325E+01 -.455E+00   0.707E-04 -.216E-04 0.247E-04
   0.407E+02 0.530E+02 -.190E+03   -.450E+02 -.554E+02 0.196E+03   0.432E+01 0.243E+01 -.678E+01   0.256E-04 -.410E-05 -.118E-03
   0.281E+02 -.478E+02 0.164E+03   -.304E+02 0.550E+02 -.166E+03   0.234E+01 -.731E+01 0.185E+01   -.316E-04 -.161E-04 -.631E-04
   -.292E+02 0.711E+02 0.148E+03   0.291E+02 -.786E+02 -.148E+03   0.916E-01 0.772E+01 -.584E+00   0.541E-04 0.171E-04 -.607E-04
   -.617E+02 -.776E+02 0.116E+03   0.663E+02 0.842E+02 -.117E+03   -.469E+01 -.668E+01 0.105E+01   0.720E-04 -.359E-04 0.230E-04
   0.120E+03 -.102E+02 0.128E+03   -.129E+03 0.104E+02 -.127E+03   0.828E+01 -.202E+00 -.538E+00   -.185E-04 0.816E-05 0.204E-04
   0.368E+02 0.479E+01 0.714E+02   -.443E+02 -.390E+01 -.709E+02   0.779E+01 -.934E+00 -.609E+00   0.730E-04 -.163E-04 0.359E-04
   -.619E+02 -.434E+02 -.207E+03   0.655E+02 0.483E+02 0.213E+03   -.359E+01 -.493E+01 -.580E+01   0.144E-04 0.306E-04 -.131E-03
   0.454E+02 0.594E+02 0.774E+02   -.487E+02 -.655E+02 -.739E+02   0.328E+01 0.627E+01 -.354E+01   -.282E-04 0.131E-05 0.213E-04
   -.156E+02 -.348E+02 0.129E+03   0.159E+02 0.412E+02 -.132E+03   -.263E+00 -.677E+01 0.317E+01   0.539E-05 -.343E-04 -.335E-04
   0.192E+02 -.452E+02 0.180E+03   -.235E+02 0.509E+02 -.182E+03   0.441E+01 -.594E+01 0.228E+01   0.159E-04 -.296E-04 -.744E-04
   -.181E+01 -.365E+02 0.238E+03   0.233E+01 0.403E+02 -.245E+03   -.515E+00 -.386E+01 0.729E+01   0.557E-05 -.369E-04 -.571E-04
   0.443E+02 -.134E+02 0.191E+03   -.504E+02 0.169E+02 -.195E+03   0.618E+01 -.354E+01 0.405E+01   0.244E-04 -.217E-04 -.720E-04
   -.151E+01 0.498E+02 0.228E+03   0.867E+00 -.516E+02 -.236E+03   0.646E+00 0.182E+01 0.809E+01   0.294E-05 -.213E-04 -.774E-04
   0.673E+02 0.116E+02 -.665E+02   -.750E+02 -.122E+02 0.696E+02   0.766E+01 0.683E+00 -.305E+01   -.508E-04 0.347E-04 0.962E-04
   0.419E+02 -.826E+02 -.150E+03   -.448E+02 0.905E+02 0.151E+03   0.295E+01 -.783E+01 -.104E+01   -.318E-05 0.200E-05 -.106E-03
   0.133E+02 0.773E+02 -.104E+03   -.116E+02 -.852E+02 0.103E+03   -.168E+01 0.794E+01 0.125E+01   0.307E-04 0.328E-04 0.136E-05
   0.178E+02 0.170E+02 -.499E+01   -.232E+02 -.195E+02 0.944E+01   0.560E+01 0.252E+01 -.459E+01   -.363E-05 0.215E-06 0.736E-04
   0.289E+02 -.518E+02 0.536E+02   -.340E+02 0.562E+02 -.497E+02   0.525E+01 -.445E+01 -.402E+01   -.164E-04 -.106E-04 0.157E-04
   0.148E+02 -.265E+02 0.208E+03   -.169E+02 0.273E+02 -.216E+03   0.214E+01 -.795E+00 0.797E+01   -.202E-05 0.148E-04 0.106E-04
   -.764E+02 -.273E+02 0.198E+03   0.835E+02 0.284E+02 -.202E+03   -.723E+01 -.106E+01 0.394E+01   0.186E-04 0.241E-04 -.624E-04
   -.828E+02 -.367E+02 0.134E+03   0.897E+02 0.406E+02 -.134E+03   -.716E+01 -.403E+01 -.162E+00   -.425E-06 -.103E-04 -.180E-04
   -.102E+03 0.109E+02 0.154E+03   0.109E+03 -.129E+02 -.155E+03   -.796E+01 0.202E+01 0.105E+01   -.125E-04 0.992E-05 -.605E-04
   0.569E+00 -.695E+02 0.100E+03   0.729E+00 0.762E+02 -.960E+02   -.133E+01 -.693E+01 -.420E+01   -.260E-04 0.115E-05 0.565E-05
   -.326E+02 -.496E+02 0.218E+03   0.365E+02 0.541E+02 -.224E+03   -.406E+01 -.454E+01 0.559E+01   -.305E-04 0.332E-04 -.111E-03
   0.762E+02 0.226E+02 0.109E+03   -.821E+02 -.266E+02 -.111E+03   0.621E+01 0.436E+01 0.246E+01   -.404E-04 0.183E-04 0.458E-04
   0.498E+02 0.519E+02 -.109E+03   -.550E+02 -.582E+02 0.107E+03   0.523E+01 0.628E+01 0.176E+01   0.137E-04 0.429E-04 -.310E-04
   -.162E+02 -.696E+02 -.195E+03   0.185E+02 0.757E+02 0.200E+03   -.225E+01 -.609E+01 -.535E+01   0.569E-06 -.109E-04 -.554E-04
   0.164E+02 0.203E+02 -.225E+03   -.181E+02 -.230E+02 0.233E+03   0.165E+01 0.265E+01 -.780E+01   -.982E-05 0.834E-05 -.175E-03
   0.285E+02 -.761E+02 -.196E+03   -.287E+02 0.831E+02 0.200E+03   0.205E+00 -.698E+01 -.464E+01   -.876E-05 -.329E-04 -.806E-04
   -.571E+02 -.237E+02 -.131E+03   0.608E+02 0.275E+02 0.130E+03   -.371E+01 -.383E+01 0.679E+00   -.673E-04 -.176E-04 -.177E-03
   0.625E+02 0.183E+02 -.128E+03   -.678E+02 -.201E+02 0.130E+03   0.528E+01 0.185E+01 -.109E+01   0.170E-04 -.102E-04 -.137E-03
   -.435E+02 0.931E+01 -.165E+03   0.461E+02 -.798E+01 0.169E+03   -.266E+01 -.134E+01 -.454E+01   -.783E-05 -.207E-04 -.142E-03
   0.292E+02 0.612E+02 -.144E+03   -.336E+02 -.644E+02 0.145E+03   0.436E+01 0.326E+01 -.132E+01   -.640E-05 -.769E-05 -.179E-03
   -.530E+02 0.561E+02 -.104E+03   0.564E+02 -.591E+02 0.101E+03   -.335E+01 0.302E+01 0.295E+01   -.358E-04 -.210E-05 -.163E-03
   -.385E+02 0.317E+02 -.137E+03   0.428E+02 -.351E+02 0.138E+03   -.428E+01 0.348E+01 -.151E+01   0.126E-05 -.450E-05 -.149E-03
   -.534E+02 -.380E+02 -.117E+03   0.586E+02 0.398E+02 0.116E+03   -.528E+01 -.180E+01 0.113E+01   0.144E-04 0.496E-05 -.198E-03
   0.472E+02 -.543E+02 -.113E+03   -.515E+02 0.578E+02 0.111E+03   0.430E+01 -.342E+01 0.168E+01   0.252E-04 -.776E-06 -.199E-03
   -.155E+03 0.466E+02 0.334E+03   0.169E+03 -.580E+02 -.325E+03   -.142E+02 0.115E+02 -.958E+01   -.389E-04 0.676E-04 0.392E-03
   -.175E+03 0.409E+02 0.383E+03   0.203E+03 -.565E+02 -.392E+03   -.279E+02 0.163E+02 0.956E+01   -.253E-04 -.183E-04 0.204E-03
   -.182E+03 0.143E+03 -.948E+03   0.177E+03 -.182E+03 0.950E+03   0.410E+01 0.390E+02 -.137E+01   0.111E-03 0.173E-03 -.855E-03
   -.325E+02 0.222E+02 0.801E+02   0.556E+02 -.322E+02 -.109E+03   -.231E+02 0.100E+02 0.293E+02   0.256E-03 -.231E-04 0.402E-03
[...]
   -.525E+02 -.123E+02 0.213E+03   0.519E+02 0.111E+02 -.215E+03   0.463E+00 0.747E+00 0.891E+00   0.879E-04 -.136E-03 0.249E-03
   0.739E+02 -.284E+02 -.152E+03   -.683E+02 0.274E+02 0.148E+03   -.555E+01 0.101E+01 0.369E+01   -.139E-03 -.341E-04 0.345E-03
   -.869E+02 -.234E+02 0.376E+03   0.870E+02 0.214E+02 -.378E+03   -.179E+00 0.200E+01 0.171E+01   -.582E-05 0.146E-04 0.898E-04
   -.598E+02 0.955E+02 -.268E+03   0.594E+02 -.958E+02 0.270E+03   0.356E+00 0.210E+00 -.162E+01   0.163E-03 -.667E-05 -.272E-05
   -.102E+02 0.100E+01 0.286E+02   0.109E+02 -.418E+01 -.309E+02   -.100E+01 0.962E+01 0.182E+01   -.836E-04 -.517E-04 0.890E-04
   -.282E+02 0.855E+02 0.454E+03   0.282E+02 -.839E+02 -.456E+03   -.435E-01 -.174E+01 0.154E+01   -.200E-04 -.467E-04 -.165E-03
   0.938E+02 -.489E+01 -.284E+02   -.925E+02 0.712E+01 0.287E+02   -.132E+01 -.237E+01 -.639E+00   -.121E-03 -.773E-04 0.302E-03
   0.116E+03 0.186E+02 0.147E+03   -.110E+03 -.115E+02 -.151E+03   -.283E+02 -.230E+02 0.857E+01   -.275E-03 0.122E-03 0.340E-03
   -.169E+02 0.958E+02 -.410E+03   0.186E+02 -.943E+02 0.410E+03   -.166E+01 -.151E+01 0.338E+00   0.565E-04 -.404E-05 0.223E-04
   -.296E+02 0.321E+02 0.125E+03   0.297E+02 -.329E+02 -.124E+03   -.231E+00 0.862E+00 -.104E+01   0.948E-04 0.487E-04 0.359E-03
   0.574E+02 -.175E+02 -.367E+03   -.579E+02 0.183E+02 0.368E+03   0.487E+00 -.766E+00 -.886E+00   -.163E-04 -.110E-03 0.123E-03
   0.551E+02 -.589E+02 -.317E+03   -.565E+02 0.544E+02 0.316E+03   0.138E+01 0.444E+01 0.153E+00   0.135E-03 0.422E-05 0.282E-04
   0.104E+03 0.499E+02 -.184E+03   -.993E+02 -.479E+02 0.187E+03   -.443E+01 -.199E+01 -.275E+01   -.195E-03 -.104E-04 0.200E-03
   0.782E+02 0.459E+02 -.794E+03   -.759E+02 -.489E+02 0.794E+03   -.237E+01 0.297E+01 -.394E+00   0.101E-03 -.269E-04 -.853E-03
   0.317E+03 -.227E+03 -.127E+03   0.112E-11 0.718E-12 0.819E-11   -.316E+03 0.227E+03 0.127E+03   -.226E-02 0.174E-02 0.182E-01

 POSITION                                       TOTAL-FORCE (eV/Angst)
     13.13626      8.33536     19.41993        -0.001396      0.012240      0.006059
     11.90965     10.17873     21.76924        -0.018559     -0.010546      0.024056
     13.56873      7.13567     20.22693         0.002783      0.013643      0.021579
     12.13724     11.36081     21.18010        -0.004045      0.022589      0.002962
     17.81837      1.87418     17.50577         0.008179      0.008437     -0.019653
     21.68887      5.04983      9.57948         0.101035      0.074088     -0.026527
     18.57311      3.75615     10.03977         0.037087      0.114634      0.045543
     22.81522     17.09936      8.74523         0.108375      0.057751      0.029339
     14.64921     17.45932     10.08748         0.054608     -0.003828     -0.058810
     19.20987     18.03075      9.91976         0.119845      0.025318     -0.000943
     17.55831      2.55833     12.31361        -0.111226     -0.220434     -0.132105
     21.43303      4.52082     13.67961        -0.000231     -0.000656      0.000316
     13.66032      5.51363      8.22435        -0.101458     -0.127581      0.042854
     20.86809      6.06659     16.55369         0.017439     -0.015024      0.013499
     13.69774      6.52872     16.49671         0.002212     -0.002312     -0.002916
     13.89304     15.78373     15.54185         0.002552     -0.002515     -0.001293
      0.79782      6.12704     17.52023        -0.000072      0.000167     -0.000206
     21.89589      7.60212     12.20778        -0.089156      0.135165      0.069850
     17.46807      9.60991     11.35790        -0.321225      0.160341     -0.036682
     18.67615      6.92748     17.06228         0.009101      0.004187     -0.011329
     13.83846     10.30524     10.16285         0.097300     -0.183606      0.059866
     16.81947     11.70510     10.30871        -0.029625      0.242767     -0.019226
     19.69248      9.82944     11.28016        -0.107306     -0.101233      0.012413
      0.11154     10.94157      9.61829         0.110198     -0.007761     -0.030553
     19.39295     12.90878     12.57986         0.229591     -0.038142     -0.054891
     20.55652     10.84829     19.37991        -0.005540     -0.007113     -0.009998
     12.17365     17.85965     11.33680         0.014439      0.130400     -0.100418
      5.22293     17.76162     10.57067        -0.011722     -0.354013      0.119354
      5.06559      4.31016      8.58199         0.178900     -0.198877      0.070115
      3.68730      5.97650      7.50000         0.014002     -0.077762      0.116822
      7.99605      2.81941      8.89229         0.085086     -0.089071      0.065279
      5.21407      0.82921      8.67630         0.002789      0.019176      0.150114
     11.98295     14.91670     14.69827        -0.000015      0.005154     -0.000889
      8.97364      4.40630     17.40560         0.006287     -0.001872      0.002723
      5.72310      1.68189     16.08836        -0.001793      0.001041     -0.002248
      7.38348      8.82752     11.89413         0.232487      0.097093     -0.170526
      9.57419      7.95042     10.90633         0.121072     -0.107466     -0.116676
      9.32939     14.37220     10.45190         0.044179      0.002690      0.132129
      5.71709     11.87720      7.91250        -0.105712     -0.016416      0.040139
      7.29827      7.58330      9.92689        -0.165218     -0.090848     -0.010962
      9.49268     10.58787      9.10862        -0.111279      0.038449     -0.004842
      3.26254      8.84269      9.46105        -0.025324     -0.204266     -0.121718
     13.88920     12.64839      9.47364        -0.128280     -0.095944      0.164477
     10.98006     15.61013     11.93160         0.316072      0.337411      0.165766
      2.85284      5.85112     16.44087        -0.001467     -0.000969     -0.000139
      1.71163     12.04892     17.35953         0.000454      0.003862      0.003990
      5.68847      6.95609     18.34648        -0.000383     -0.003479      0.009589
      5.71927     14.75779     17.98275         0.001551     -0.009565     -0.008075
     13.89794      9.12599     19.28122        -0.001949      0.010817      0.000544
     10.89712      9.82154     21.97529        -0.011563      0.013048      0.010790
     14.10833      7.41702     21.14723        -0.015581      0.031687      0.020049
     12.71176      6.49877     20.48795         0.003628      0.011589      0.013210
     14.26241      6.52319     19.61926         0.004752      0.026235      0.029000
     12.72678      9.51508     22.05984        -0.014562      0.015011      0.014657
     13.15171     11.70571     20.96192        -0.016319      0.006770      0.012964
     11.32073     12.01289     20.86378        -0.006983      0.006185      0.013629
      8.63740     11.74900     11.80180        -0.242620      0.114147     -0.237452
      8.11940      9.13372     11.30145        -0.095474      0.611071      0.026789
     20.15043     10.25713     18.72852         0.013588     -0.001902      0.012205
      8.17398     17.29562     14.27868        -0.001387     -0.004483     -0.008112
[...]
      5.71814      6.71222     11.31648         0.022154     -0.126027     -0.114323
     15.41693      5.98005     12.10687        -0.159999     -0.468402     -0.824431
     10.76417      5.72322     14.21141         0.009147     -0.000606      0.002865
      7.89661     10.69049     10.72869        -0.123121     -0.074473     -0.054397
     18.80357      8.63426     15.58395        -0.003779      0.003167      0.000180
      1.62029     16.28844     12.91761        -0.325736      6.443245     -0.544466
      4.96103      2.61769     10.04353        -0.073703     -0.038826      0.063098
      1.83153      8.95162     13.29887         0.023867     -0.147436     -0.320955
     13.05344     15.44546     12.76235       -22.285853    -15.852750      4.695878
     16.81710     10.59662     16.38728         0.008205     -0.002098     -0.001467
      6.71066      3.80730     12.34244        -0.227078     -0.007422     -0.744523
      2.06371     11.33485     15.25843        -0.008022     -0.004131      0.001615
      8.29432      0.27106     15.56561        -0.002360      0.000788      0.001088
     11.39208      8.64790     15.30094         0.008664     -0.005028     -0.001298
     11.51473      8.68311     18.48049         0.001596      0.011128     -0.012406
    total drift:                                0.469993      0.122753      0.256826

  FREE ENERGIE OF THE ION-ELECTRON SYSTEM (eV)
  free  energy   TOTEN  =     -1886.10243523 eV

  energy  without entropy=    -1886.10243523  energy(sigma->0) =    -1886.10243523

 stress matrix after NEB project (eV)
    -32.53227      0.24638      0.30025
      0.24638    -33.50632     -0.48725
      0.30025     -0.48725    -25.55026
  FORCES: max atom, RMS     0.040605    0.008573
  FORCE total and by dimension    0.142424    0.031687
  Stress total and by dimension   53.241095   33.506323
 Quasi-Newton relaxation of ions (Broydens 2nd method)
  g(Force)  = 0.979E-03   g(Stress)= 0.000E+00

 Reset! Starting new Quasi-Newton update for ions

 reached required accuracy - stopping structural energy minimisation