 vasp.5.4.4.18Apr17-6-g9f103f2a35 (build Oct 20 2021 08:33:53) complex
 executed on             LinuxGNU date 2024.06.05  09:03:23

 INCAR:
 POTCAR:    PAW_PBE C 08Apr2002
 POTCAR:    PAW_PBE H 15Jun2001
 POTCAR:    PAW_PBE O 08Apr2002
 POTCAR:    PAW_PBE Si 05Jan2001
 POTCAR:    PAW_PBE W 08Apr2002
 POTCAR:    PAW_PBE C 08Apr2002
   VRHFIN =C: s2p2

   TITEL  = PAW_PBE C 08Apr2002
   POMASS =   12.011; ZVAL   =    4.000    mass and valenz
   ENMAX  =  400.000; ENMIN  =  300.000 eV

 POTCAR:    PAW_PBE H 15Jun2001
   VRHFIN =H: ultrasoft test

   TITEL  = PAW_PBE H 15Jun2001
   POMASS =    1.000; ZVAL   =    1.000    mass and valenz
   ENMAX  =  250.000; ENMIN  =  200.000 eV

 POTCAR:    PAW_PBE O 08Apr2002
   VRHFIN =O: s2p4

[...]

 POTCAR:    PAW_PBE Si 05Jan2001
   VRHFIN =Si: s2p2

   TITEL  = PAW_PBE Si 05Jan2001
   POMASS =   28.085; ZVAL   =    4.000    mass and valenz
   ENMAX  =  245.345; ENMIN  =  184.009 eV

 POTCAR:    PAW_PBE W 08Apr2002
   VRHFIN =W : 6s5d

   TITEL  = PAW_PBE W 08Apr2002
   POMASS =  183.850; ZVAL   =    6.000    mass and valenz
   ENMAX  =  223.057; ENMIN  =  167.293 eV

 Optimization of the real space projectors (new method)

 maximal supplied QI-value         = 25.13
 optimisation between [QCUT,QGAM] = [ 11.31, 22.87] = [ 35.82,146.48] Ry
 Optimized for a Real-space Cutoff    1.00 Angstroem

   l    n(q)    QCUT    max X(q) W(low)/X(q) W(high)/X(q)  e(spline)
   0      7    11.310   115.676    0.43E-03    0.13E-02    0.19E-06
   0      7    11.310    87.132    0.43E-03    0.13E-02    0.18E-06
   1      6    11.310     4.429    0.42E-03    0.74E-03    0.11E-06
   1      6    11.310     2.733    0.34E-03    0.55E-03    0.92E-07
 Optimization of the real space projectors (new method)

[...]

   l    n(q)    QCUT    max X(q) W(low)/X(q) W(high)/X(q)  e(spline)
   0      8    11.310   159.560    0.27E-03    0.30E-03    0.39E-07
   0      8    11.310   115.863    0.27E-03    0.30E-03    0.38E-07
   1      7    11.310    88.339    0.28E-03    0.28E-03    0.77E-07
   1      7    11.310    48.592    0.27E-03    0.27E-03    0.74E-07
 Optimization of the real space projectors (new method)

 maximal supplied QI-value         = 13.61
 optimisation between [QCUT,QGAM] = [ 11.43, 22.86] = [ 36.58,146.31] Ry
 Optimized for a Real-space Cutoff    1.56 Angstroem

   l    n(q)    QCUT    max X(q) W(low)/X(q) W(high)/X(q)  e(spline)
   2     10    11.429   130.855    0.22E-03    0.64E-03    0.11E-05
   2     10    11.429   114.007    0.22E-03    0.64E-03    0.11E-05
   0     11    11.429    84.709    0.39E-04    0.67E-04    0.23E-06
   0     11    11.429    49.163    0.35E-04    0.62E-04    0.21E-06
   1     10    11.429    15.765    0.84E-04    0.15E-03    0.24E-06
   1     10    11.429    10.638    0.58E-04    0.12E-03    0.19E-06

  PAW_PBE C 08Apr2002                   :
  PAW_PBE H 15Jun2001                   :
  PAW_PBE O 08Apr2002                   :
  PAW_PBE Si 05Jan2001                  :
  PAW_PBE W 08Apr2002                   :

 POSCAR:  C  H  O Si  W
  positions in direct lattice
  velocities in cartesian coordinates
 exchange correlation table for  LEXCH =        9
   RHO(1)=    0.500       N(1)  =     2000
   RHO(2)=  100.500       N(2)  =     4000

 VTST: version 3.2, (02/03/18)

 CHAIN: initializing optimizer

 OPT: Using VASP Quick-Min optimizer
 CHAIN: Read ICHAIN            0
 CHAIN: Running the NEB
 NEB:          SPRING     -5.000000
 NEB:          LCLIMB      F
 NEB:     LTANGENTOLD      F
 NEB:           LDNEB      F
 NEB:        LDNEBORG      F
 NEB:        LNEBCELL      F
 NEB:          EFIRST      0.000000
 NEB:           ELAST      0.000000

 POSCAR:  C  H  O Si  W
  positions in cartesian coordinates

 POSCAR:  C  H  O Si  W
  positions in cartesian coordinates

 ion  position               nearest neighbor table
   1  0.508  0.605  0.765-  49 1.10   3 1.53   2 1.53 277 2.19
   2  0.551  0.543  0.776-  50 1.10   4 1.52   1 1.53 210 1.56 277 2.59
   3  0.531  0.684  0.763-  53 1.10  52 1.10  51 1.10   1 1.53
   4  0.533  0.483  0.812-  56 1.10  55 1.10  54 1.10   2 1.52
   5  0.762  0.159  0.651- 131 0.97
   6  0.926  0.334  0.356-  79 0.98
   7  0.793  0.262  0.373- 114 0.97
   8  0.975  0.999  0.325- 123 0.97
   9  0.626  0.019  0.375- 125 0.98
  10  0.821  0.050  0.369- 143 0.97
  11  0.750  0.196  0.458- 181 0.98
  12  0.916  0.305  0.510- 186 0.97
  13  0.583  0.359  0.306- 191 0.97
  14  0.892  0.390  0.616-  97 0.98
  15  0.593  0.415  0.615- 142 0.97
  16  0.593  0.926  0.578- 184 0.99
  17  0.034  0.393  0.652- 190 0.97
  18  0.935  0.475  0.454- 179 0.98
  19  0.746  0.585  0.422-  93 1.00
  20  0.799  0.439  0.636- 171 0.97
  21  0.591  0.624  0.378- 105 0.99
  22  0.718  0.701  0.383- 128 0.99
  23  0.841  0.598  0.420- 134 0.98
  24  0.005  0.659  0.358- 139 0.97
  25  0.828  0.768  0.468- 180 0.99
  26  0.874  0.652  0.723-  59 0.97
  27  0.520  0.041  0.422- 141 0.99
  28  0.223  0.035  0.393- 182 1.00
  29  0.216  0.293  0.319- 197 0.99
  30  0.158  0.385  0.279- 188 0.97
  31  0.342  0.211  0.331- 189 0.98
  32  0.223  0.101  0.323- 196 0.97
  33  0.511  0.881  0.547- 199 0.97
  34  0.376  0.296  0.647-  84 0.97
  35  0.244  0.148  0.598- 135 0.98
  36  0.315  0.542  0.442-  58 0.99
  37  0.409  0.494  0.406- 147 0.98
  38  0.398  0.848  0.389- 185 0.97
  39  0.244  0.711  0.294- 193 0.97
  40  0.312  0.474  0.369- 194 0.98
  41  0.405  0.639  0.339- 195 0.97
  42  0.139  0.543  0.352- 187 0.98
  43  0.593  0.753  0.352-  88 0.97
  44  0.469  0.917  0.444- 198 0.99
  45  0.122  0.379  0.612- 107 0.97
  46  0.073  0.719  0.646- 138 0.97
  47  0.243  0.442  0.682- 183 0.97
  48  0.246  0.871  0.670- 192 0.97
  49  0.469  0.601  0.788-   1 1.10
  50  0.594  0.565  0.784-   2 1.10
  51  0.539  0.706  0.801-   3 1.10
  52  0.572  0.686  0.743-   3 1.10
  53  0.501  0.720  0.744-   3 1.10
  54  0.539  0.500  0.850-   4 1.10
  55  0.488  0.468  0.806-   4 1.10
  56  0.559  0.433  0.805-   4 1.10
  57  0.369  0.704  0.439- 231 1.66 266 1.68
  58  0.347  0.559  0.420-  36 0.99 266 1.67
  59  0.861  0.620  0.696-  26 0.97 237 1.64
  60  0.349  0.013  0.531- 242 1.68 275 1.70
[...]
 219  0.214  0.531  0.510- 178 1.61 177 1.63 137 1.66 174 1.66 230 3.10 263 3.14
 220  0.915  0.811  0.496- 102 1.65 180 1.65  86 1.66  91 1.66 233 2.99 241 3.03
 221  0.521  0.166  0.426- 113 1.64  64 1.65 141 1.66 121 1.67 252 3.08 235 3.12
 222  0.419  0.224  0.589-  84 1.64 201 1.66 101 1.68 161 1.69 275 3.14 262 3.14
 223  0.083  0.194  0.407-  63 1.64 144 1.65  89 1.65 157 1.66 216 3.11 215 3.13 269 3.14
 224  0.702  0.100  0.487-  96 1.64 165 1.65  62 1.65 181 1.66 235 3.09 225 3.10 259 3.15
 225  0.665  0.953  0.437-  95 1.53 165 1.66 125 1.66 156 1.67 271 2.83 258 3.06 224 3.10
 226  0.650  0.559  0.430- 105 1.65 163 1.65  93 1.67  99 1.68 234 3.07
 227  0.198  0.968  0.464- 136 1.50 182 1.64 159 1.66 115 1.67 245 3.01 242 3.06 268 3.07
 228  0.214  0.422  0.604-  83 1.63 178 1.64 107 1.64 183 1.64
 229  0.673  0.868  0.595- 184 1.62 116 1.64  98 1.68 206 1.71 256 2.90
 230  0.216  0.697  0.539- 169 1.63 176 1.63 202 1.65 137 1.65 245 3.09 219 3.10 274 3.13
 231  0.369  0.790  0.459-  73 1.65 104 1.66  57 1.66 185 1.68
 232  0.797  0.943  0.595- 140 1.66  98 1.66 109 1.67 205 1.68 241 2.86 233 2.99 259 3.15
 233  0.879  0.967  0.512-  72 1.60  91 1.62 109 1.65 117 1.65 220 2.99 232 2.99 257 3.05 248 3.14

 234  0.576  0.629  0.512-  99 1.58 166 1.62 100 1.63 133 1.65 244 3.00 226 3.07 276 3.12
 235  0.590  0.170  0.525-  62 1.60 121 1.61 158 1.62 148 1.65 262 2.85 224 3.09 246 3.12 221 3.12

[...]

 273  0.287  0.265  0.459- 173 1.62 122 1.63  67 1.66 152 1.67 251 3.02 269 3.12
 274  0.088  0.680  0.568- 162 1.63 138 1.63 108 1.64 169 1.65 270 3.09 230 3.13
 275  0.354  0.074  0.578- 161 1.63  69 1.66 208 1.69  60 1.70 242 2.38 261 2.74 222 3.14
 276  0.486  0.537  0.571- 133 1.64  77 1.66 127 1.67  85 1.68 253 2.94 234 3.12
 277  0.490  0.546  0.696- 211 1.72 210 1.89 124 1.96  77 1.98   1 2.19   2 2.59 253 3.17

  LATTYP: Found a simple orthorhombic cell.
 ALAT       =    18.1212369514
 B/A-ratio  =     1.2919258579
 C/A-ratio  =     1.4835282260

  Lattice vectors:

 A1 = (   0.0000000000, -18.1212369514,   0.0000000000)
 A2 = ( -23.4112945954,   0.0000000000,   0.0000000000)
 A3 = (   0.0000000000,   0.0000000000, -26.8833665073)

Analysis of symmetry for initial positions (statically):
 Subroutine PRICEL returns:
 Original cell was already a primitive cell.

 Routine SETGRP: Setting up the symmetry group for a
 simple orthorhombic supercell.

 Subroutine GETGRP returns: Found  1 space group operations
 (whereof  1 operations were pure point group operations)
 out of a pool of  8 trial point group operations.

The static configuration has the point symmetry C_1 .

Analysis of symmetry for dynamics (positions and initial velocities):
 Subroutine PRICEL returns:
 Original cell was already a primitive cell.

[...]

The dynamic configuration has the point symmetry C_1 .

Analysis of constrained symmetry for selective dynamics:
 Subroutine PRICEL returns:
 Original cell was already a primitive cell.

 Routine SETGRP: Setting up the symmetry group for a
 simple orthorhombic supercell.

 Subroutine GETGRP returns: Found  1 space group operations
 (whereof  1 operations were pure point group operations)
 out of a pool of  8 trial point group operations.

The constrained configuration has the point symmetry C_1 .

 Subroutine INISYM returns: Found  1 space group operations
 (whereof  1 operations are pure point group operations),
 and found     1 'primitive' translations

 KPOINTS: KPOINTS created by Atomic Simulation Env

Automatic generation of k-mesh.
Space group operators:
 irot       det(A)        alpha          n_x          n_y          n_z        tau_x        tau_y        tau_z
    1     1.000000     0.000000     1.000000     0.000000     0.000000     0.000000     0.000000     0.000000

 Subroutine IBZKPT returns following result:

 Found      5 irreducible k-points:

 Following reciprocal coordinates:
            Coordinates               Weight
  0.000000  0.000000  0.000000      1.000000
  0.333333  0.000000  0.000000      2.000000
  0.000000  0.333333  0.000000      2.000000
  0.333333  0.333333  0.000000      2.000000
 -0.333333  0.333333  0.000000      2.000000

 Following cartesian coordinates:
            Coordinates               Weight
  0.000000  0.000000  0.000000      1.000000
  0.014238  0.000000  0.000000      2.000000
  0.000000  0.018395  0.000000      2.000000
  0.014238  0.018395  0.000000      2.000000
 -0.014238  0.018395  0.000000      2.000000

 SYSTEM =  unknown system
 POSCAR =   C  H  O Si  W

 Startparameter for this run:
   NWRITE =      2    write-flag & timer
   PREC   = normal    normal or accurate (medium, high low for compatibility)
   ISTART =      0    job   : 0-new  1-cont  2-samecut
   ICHARG =      2    charge: 1-file 2-atom 10-const
   ISPIN  =      1    spin polarized calculation?
   LNONCOLLINEAR =      F non collinear calculations
   LSORBIT =      F    spin-orbit coupling
   INIWAV =      1    electr: 0-lowe 1-rand  2-diag
   LASPH  =      T    aspherical Exc in radial PAW
[...]
   0.194E+02 -.452E+02 0.180E+03   -.236E+02 0.509E+02 -.182E+03   0.441E+01 -.594E+01 0.227E+01   0.180E-05 0.152E-04 -.995E-05
   -.169E+01 -.365E+02 0.238E+03   0.220E+01 0.403E+02 -.245E+03   -.515E+00 -.387E+01 0.734E+01   0.127E-04 0.928E-05 0.357E-04
   0.444E+02 -.135E+02 0.191E+03   -.504E+02 0.169E+02 -.195E+03   0.618E+01 -.353E+01 0.404E+01   0.101E-04 0.286E-05 -.215E-04
   -.135E+01 0.498E+02 0.229E+03   0.704E+00 -.516E+02 -.236E+03   0.646E+00 0.182E+01 0.808E+01   -.369E-05 -.162E-04 0.846E-05
   0.669E+02 0.610E+01 -.660E+02   -.747E+02 -.641E+01 0.691E+02   0.769E+01 0.314E+00 -.306E+01   0.193E-04 -.128E-04 -.708E-04
   0.539E+02 -.767E+02 -.149E+03   -.581E+02 0.839E+02 0.150E+03   0.428E+01 -.720E+01 -.957E+00   -.378E-04 0.474E-04 0.753E-04
   0.162E+02 0.766E+02 -.104E+03   -.146E+02 -.845E+02 0.103E+03   -.153E+01 0.794E+01 0.124E+01   -.144E-04 -.719E-04 0.309E-04
   0.179E+02 0.173E+02 -.429E+01   -.233E+02 -.197E+02 0.875E+01   0.559E+01 0.252E+01 -.460E+01   -.342E-04 0.709E-04 -.665E-04
   0.287E+02 -.515E+02 0.539E+02   -.338E+02 0.559E+02 -.500E+02   0.525E+01 -.445E+01 -.402E+01   -.123E-04 0.294E-04 -.692E-04
   0.149E+02 -.266E+02 0.208E+03   -.170E+02 0.274E+02 -.216E+03   0.214E+01 -.795E+00 0.796E+01   -.298E-04 -.273E-04 0.184E-04
   -.762E+02 -.273E+02 0.198E+03   0.833E+02 0.284E+02 -.202E+03   -.724E+01 -.106E+01 0.394E+01   -.948E-05 -.116E-04 0.791E-04
   -.827E+02 -.366E+02 0.134E+03   0.897E+02 0.405E+02 -.134E+03   -.716E+01 -.403E+01 -.166E+00   -.223E-04 0.425E-04 -.490E-04
   -.102E+03 0.110E+02 0.154E+03   0.109E+03 -.130E+02 -.156E+03   -.795E+01 0.202E+01 0.104E+01   -.351E-04 0.220E-04 -.144E-04
   0.714E+00 -.694E+02 0.100E+03   0.583E+00 0.762E+02 -.962E+02   -.133E+01 -.693E+01 -.421E+01   0.974E-05 0.352E-04 -.569E-05
   -.327E+02 -.496E+02 0.219E+03   0.366E+02 0.540E+02 -.224E+03   -.406E+01 -.454E+01 0.558E+01   -.417E-05 -.142E-04 -.126E-04
   0.760E+02 0.222E+02 0.110E+03   -.819E+02 -.263E+02 -.112E+03   0.621E+01 0.436E+01 0.246E+01   -.583E-04 -.352E-04 -.464E-04
   0.497E+02 0.532E+02 -.111E+03   -.549E+02 -.595E+02 0.109E+03   0.519E+01 0.636E+01 0.155E+01   0.918E-05 -.118E-03 0.545E-04
   -.168E+02 -.689E+02 -.195E+03   0.191E+02 0.749E+02 0.201E+03   -.233E+01 -.600E+01 -.542E+01   -.224E-04 0.364E-04 -.518E-05
   0.192E+02 0.177E+02 -.225E+03   -.209E+02 -.200E+02 0.233E+03   0.173E+01 0.231E+01 -.790E+01   0.922E-05 0.710E-04 0.202E-05
   0.253E+02 -.753E+02 -.198E+03   -.251E+02 0.822E+02 0.203E+03   -.180E+00 -.686E+01 -.487E+01   0.483E-04 -.594E-04 0.442E-04
   0.727E+02 -.114E+02 -.166E+03   -.772E+02 0.112E+02 0.169E+03   0.457E+01 0.278E+00 -.307E+01   0.413E-04 -.465E-04 -.122E-03
   -.840E+02 -.151E+02 -.145E+03   0.893E+02 0.171E+02 0.147E+03   -.526E+01 -.204E+01 -.112E+01   -.442E-04 0.157E-04 -.594E-04
   -.117E+02 -.491E+02 -.171E+03   0.126E+02 0.511E+02 0.176E+03   -.876E+00 -.206E+01 -.494E+01   0.357E-04 -.834E-04 -.506E-04
   -.600E+02 -.330E+02 -.119E+03   0.648E+02 0.333E+02 0.116E+03   -.474E+01 -.263E+00 0.275E+01   0.289E-04 -.927E-04 -.702E-05
   0.404E+02 -.690E+02 -.122E+03   -.439E+02 0.723E+02 0.119E+03   0.357E+01 -.335E+01 0.259E+01   0.258E-04 -.396E-04 -.688E-04
   -.969E+01 0.211E+01 -.160E+03   0.104E+02 -.545E+00 0.165E+03   -.712E+00 -.152E+01 -.523E+01   0.411E-04 -.409E-04 -.997E-04
   0.613E+02 0.438E+02 -.126E+03   -.666E+02 -.452E+02 0.125E+03   0.536E+01 0.139E+01 0.685E+00   0.342E-04 0.338E-04 -.129E-03
   -.391E+02 0.765E+02 -.115E+03   0.422E+02 -.810E+02 0.114E+03   -.307E+01 0.455E+01 0.931E+00   -.681E-04 0.267E-04 -.183E-03
   -.153E+03 0.468E+02 0.340E+03   0.167E+03 -.582E+02 -.331E+03   -.142E+02 0.115E+02 -.964E+01   -.323E-03 0.337E-03 -.353E-03
   -.175E+03 0.424E+02 0.387E+03   0.203E+03 -.581E+02 -.396E+03   -.278E+02 0.163E+02 0.946E+01   -.293E-03 0.412E-03 -.521E-03
   -.193E+03 0.145E+03 -.942E+03   0.193E+03 -.184E+03 0.940E+03   -.539E+00 0.391E+02 0.139E+01   0.358E-03 0.242E-03 -.255E-03
   -.299E+02 0.228E+02 0.887E+02   0.529E+02 -.325E+02 -.118E+03   -.230E+02 0.976E+01 0.294E+02   -.217E-03 0.128E-03 0.339E-03
[...]
   -.523E+02 -.116E+02 0.214E+03   0.517E+02 0.104E+02 -.216E+03   0.461E+00 0.730E+00 0.867E+00   0.181E-03 0.550E-04 -.127E-03
   0.701E+02 -.344E+02 -.148E+03   -.646E+02 0.326E+02 0.145E+03   -.557E+01 0.177E+01 0.316E+01   -.424E-04 0.108E-03 0.797E-04
   -.862E+02 -.230E+02 0.379E+03   0.863E+02 0.210E+02 -.381E+03   -.159E+00 0.200E+01 0.168E+01   -.151E-03 0.183E-03 -.131E-03
   -.607E+02 0.977E+02 -.265E+03   0.604E+02 -.979E+02 0.267E+03   0.246E+00 0.208E+00 -.186E+01   0.270E-03 -.238E-04 0.114E-03
   -.103E+02 0.252E+00 0.296E+02   0.109E+02 -.350E+01 -.319E+02   -.954E+00 0.969E+01 0.177E+01   -.784E-04 0.387E-06 -.478E-03
   -.274E+02 0.854E+02 0.455E+03   0.274E+02 -.838E+02 -.457E+03   -.557E-01 -.175E+01 0.151E+01   -.242E-04 -.645E-04 -.117E-03
   0.940E+02 -.481E+01 -.261E+02   -.927E+02 0.702E+01 0.266E+02   -.128E+01 -.236E+01 -.756E+00   -.385E-04 0.131E-03 -.210E-03
   0.114E+03 0.161E+02 0.149E+03   -.108E+03 -.888E+01 -.153E+03   -.282E+02 -.231E+02 0.851E+01   -.196E-03 -.423E-04 -.333E-03
   -.222E+02 0.993E+02 -.407E+03   0.240E+02 -.977E+02 0.407E+03   -.175E+01 -.162E+01 0.449E+00   0.401E-03 -.475E-04 0.112E-03
   -.290E+02 0.319E+02 0.129E+03   0.290E+02 -.327E+02 -.128E+03   -.196E+00 0.813E+00 -.137E+01   0.128E-04 -.821E-04 -.203E-03
   0.589E+02 -.181E+02 -.367E+03   -.593E+02 0.189E+02 0.368E+03   0.410E+00 -.764E+00 -.902E+00   -.106E-03 0.176E-03 0.471E-04
   0.565E+02 -.595E+02 -.310E+03   -.577E+02 0.550E+02 0.311E+03   0.120E+01 0.451E+01 -.108E+00   -.220E-04 -.159E-03 0.625E-04
   0.100E+03 0.744E+02 -.180E+03   -.960E+02 -.708E+02 0.182E+03   -.424E+01 -.356E+01 -.199E+01   0.198E-03 -.312E-04 0.220E-03
   0.956E+02 0.814E+02 -.703E+03   -.957E+02 -.804E+02 0.705E+03   -.980E-01 -.898E+00 -.215E+01   -.131E-03 0.555E-04 0.126E-03
   0.331E+03 -.237E+03 -.116E+03   0.171E-11 0.162E-11 0.421E-11   -.332E+03 0.237E+03 0.117E+03   0.311E-01 0.124E-01 -.322E-01

 POSITION                                       TOTAL-FORCE (eV/Angst)
     11.88722     10.96168     20.57443         0.000985     -0.037816     -0.109292
     12.90071      9.84788     20.85897         0.072314     -0.103987     -0.160745
     12.44072     12.38760     20.51504         0.014537     -0.027359     -0.019077
     12.48132      8.74354     21.81942         0.033887     -0.004698     -0.014942
     17.83026      2.88421     17.50100         0.009070      0.002247     -0.004822
     21.68887      6.04983      9.57948         0.108557      0.076122     -0.010472
     18.57311      4.75615     10.03977         0.044743      0.116050      0.061183
     22.81522     18.09936      8.74523         0.116319      0.060613      0.049703
     14.64921      0.33808     10.08748         0.060593     -0.004773     -0.044513
     19.20987      0.90951      9.91976         0.128724      0.026873      0.014880
     17.55831      3.55833     12.31361        -0.103234     -0.220895     -0.126055
     21.43346      5.52005     13.70789         0.001051     -0.000109      0.002893
     13.66032      6.51363      8.22435        -0.097935     -0.136717      0.076568
     20.87745      7.07324     16.56241         0.000673      0.004637     -0.001088
     13.87773      7.52695     16.54127         0.011052      0.003781     -0.005914
     13.89031     16.78010     15.53890        -0.003404     -0.008104     -0.001584
      0.78866      7.12455     17.53749        -0.002395      0.004934      0.000041
     21.89589      8.60212     12.20778        -0.084787      0.133808      0.079267
     17.46807     10.60991     11.35790        -0.313271      0.160702     -0.028713
     18.71440      7.95478     17.08526         0.003848      0.001106     -0.001433
     13.83846     11.30524     10.16285         0.104037     -0.185009      0.076456
     16.81947     12.70510     10.30871        -0.025115      0.240821     -0.005490
     19.69248     10.82944     11.28016        -0.103282     -0.102414      0.023311
      0.11154     11.94157      9.61829         0.120547     -0.007681     -0.015258
     19.39295     13.90878     12.57986         0.229522     -0.038932     -0.045076
     20.46184     11.82386     19.42685         0.003830     -0.000672     -0.007528
     12.17365      0.73842     11.33680         0.018741      0.124938     -0.088623
      5.22293      0.64038     10.57067        -0.007536     -0.371498      0.139921
      5.06559      5.31016      8.58199         0.182046     -0.199268      0.091854
      3.68730      6.97650      7.50000         0.014125     -0.118067      0.387937
      7.99605      3.81941      8.89229         0.090344     -0.088862      0.083311
      5.21407      1.82921      8.67630         0.006901      0.022188      0.166659
     11.96701     15.96453     14.69813        -0.001600     -0.004365     -0.000663
      8.80564      5.36127     17.39753         0.007147      0.005053     -0.008046
      5.72290      2.68836     16.08166         0.007492      0.001775     -0.004057
      7.38348      9.82752     11.89413         0.227466      0.092451     -0.159872
      9.57419      8.95042     10.90633         0.124785     -0.106027     -0.110560
      9.32939     15.37220     10.45190         0.055024     -0.000008      0.139970
      5.71709     12.87720      7.91250        -0.126234     -0.020776      0.111590
      7.29827      8.58330      9.92689        -0.161760     -0.089673      0.002320
      9.49268     11.58787      9.10862        -0.108869      0.039024      0.012873
      3.26254      9.84269      9.46105        -0.019761     -0.202763     -0.108869
     13.88920     13.64839      9.47364        -0.119809     -0.095204      0.182376
     10.98006     16.61013     11.93160         0.321278      0.335767      0.172333
      2.85179      6.86418     16.45356        -0.000977      0.007320      0.003188
      1.71279     13.03467     17.37278         0.002864     -0.003206     -0.000004
      5.68516      8.01123     18.34565         0.004597     -0.002548      0.002682
      5.76397     15.78697     18.00925         0.006261      0.020861      0.007839
     10.98077     10.89947     21.19516         0.076688     -0.010962      0.041440
     13.90614     10.23715     21.07445         0.038360     -0.002253      0.018757
     12.61986     12.79618     21.52506         0.022810     -0.057954     -0.005812
     13.39161     12.42417     19.96234         0.008176      0.003158     -0.027987
     11.73023     13.05294     20.00383         0.011433      0.001438      0.015824
     12.62896      9.06593     22.86199        -0.003635      0.071933     -0.032552
     11.42284      8.48068     21.67783         0.031911     -0.007557     -0.026548
     13.09538      7.85079     21.63785         0.022486     -0.029905      0.065757
      8.63740     12.74900     11.80180        -0.270582      0.121798     -0.226160
      8.11940     10.13372     11.30145        -0.038033      0.604650      0.015656
     20.15894     11.24195     18.71387        -0.003690     -0.000410     -0.005250
      8.16968      0.22862     14.26179         0.001283     -0.003404     -0.004462
[...]
      5.71814      7.71222     11.31648         0.039465     -0.113666     -0.039812
     15.41693      6.98005     12.10687        -0.132786     -0.454531     -0.739640
     10.77832      6.76467     14.21953         0.005333     -0.001323     -0.000063
      7.89661     11.69049     10.72869        -0.119987     -0.057583      0.050075
     18.80245      9.64097     15.58256        -0.005816     -0.000919     -0.003376
      1.62029     17.28844     12.91761        -0.339084      6.439823     -0.485186
      4.96103      3.61769     10.04353        -0.094208     -0.039420      0.160159
      1.83153      9.95162     13.29887         0.017999     -0.155902     -0.263364
     13.05344     16.44546     12.76235       -22.322527    -15.873318      4.755715
     16.81099     11.59397     16.39120        -0.011397     -0.002944     -0.000213
      6.71066      4.80730     12.34244        -0.209444      0.039876     -0.771172
      2.05338     12.32899     15.26385        -0.007286     -0.001831     -0.002439
      8.28096      1.33596     15.54331         0.003524     -0.005808     -0.001424
     11.38451      9.72774     15.34686         0.025820     -0.004977      0.017195
     11.46763      9.89960     18.70752        -0.115350      0.055824      0.006091
    total drift:                               -1.108342      0.096544      0.287078

  FREE ENERGIE OF THE ION-ELECTRON SYSTEM (eV)
  free  energy   TOTEN  =     -1894.43185269 eV

  energy  without entropy=    -1894.43185269  energy(sigma->0) =    -1894.43185269

 d Force = 0.3843234E-04[ 0.346E-04, 0.423E-04]  d Energy = 0.6994054E-04-0.315E-04
 d Force =-0.7545352E-01[-0.755E-01,-0.755E-01]  d Ewald  =-0.7545352E-01-0.348E-08

 NEB: the previous image is higher in energy: F
 NEB: the next image is higher in energy    : F
 NEB: image is at an extrema
 NEB: diff energy (min, max):     0.015934    0.084850

 NEB: Tangent
      0.00399     -0.09009     -0.26377
      0.17826     -0.24585     -0.38357
      0.04627     -0.07000     -0.04359
      0.07975     -0.02093     -0.05035
      0.00200      0.00084      0.00064
      0.00000      0.00000      0.00000
      0.00000      0.00000      0.00000
      0.00000      0.00000      0.00000
      0.00000      0.00000      0.00000
      0.00000      0.00000      0.00000
      0.00000      0.00000      0.00000
      0.00043     -0.00001      0.00120
      0.00000      0.00000      0.00000
      0.00026      0.00060     -0.00059
      0.01174      0.00642     -0.01440
     -0.00077     -0.00022      0.00155
     -0.00057     -0.00099      0.00257
      0.00000      0.00000      0.00000
      0.00000      0.00000      0.00000
      0.00236      0.00122      0.00200
      0.00000      0.00000      0.00000
      0.00000      0.00000      0.00000
      0.00000      0.00000      0.00000
      0.00000      0.00000      0.00000
      0.00000      0.00000      0.00000
     -0.00359     -0.00204      0.00155
      0.00000      0.00000      0.00000
      0.00000      0.00000      0.00000
      0.00000      0.00000      0.00000
      0.00000      0.00000      0.00000
      0.00000      0.00000      0.00000
      0.00000      0.00000      0.00000
     -0.00105      0.00299     -0.00106
     -0.01050     -0.00615      0.00114
     -0.00226      0.00013      0.00034
      0.00000      0.00000      0.00000
      0.00000      0.00000      0.00000
      0.00000      0.00000      0.00000
      0.00000      0.00000      0.00000
      0.00000      0.00000      0.00000
      0.00000      0.00000      0.00000
      0.00000      0.00000      0.00000
      0.00000      0.00000      0.00000
      0.00000      0.00000      0.00000
     -0.00001      0.00030      0.00169
      0.00008     -0.00079      0.00172
      0.00287      0.00425      0.00009
      0.00110     -0.00177      0.00395
      0.18296     -0.02419      0.09335
      0.09102      0.00373      0.06322
      0.05570     -0.15027     -0.00770
      0.03897     -0.00587     -0.05195
      0.05185      0.00771      0.03297
      0.03116      0.13257     -0.09258
      0.07177     -0.00558     -0.05952
      0.03552     -0.09127      0.10199
      0.00000      0.00000      0.00000
      0.00000      0.00000      0.00000
     -0.00105      0.00159     -0.00272
      0.00017      0.00066      0.00094
[...]
      0.00000      0.00000      0.00000
      0.00000      0.00000      0.00000
      0.00986     -0.00535      0.00198
      0.00000      0.00000      0.00000
     -0.00103      0.00007     -0.00014
      0.00000      0.00000      0.00000
      0.00000      0.00000      0.00000
      0.00000      0.00000      0.00000
      0.00000      0.00000      0.00000
     -0.00426     -0.00038      0.00063
      0.00000      0.00000      0.00000
     -0.00031      0.00005      0.00036
     -0.00160      0.00155      0.00044
      0.06416     -0.01445      0.03622
     -0.26530      0.13568      0.01480

 NEB: forces: par spring, perp REAL, dneb     0.002393    0.112324    0.000000
 NEB: distance to prev, next image, angle between     0.624509    0.624987  107.808215
 NEB: projections on to tangent (spring, REAL)     0.002393    0.420751

 stress matrix after NEB project (eV)
    -32.59455      0.02682      0.09460
      0.02682    -33.44762     -0.01576
      0.09460     -0.01576    -25.35619
  FORCES: max atom, RMS     0.028437    0.006750
  FORCE total and by dimension    0.112349    0.026184
  Stress total and by dimension   53.142303   33.447622

 reached required accuracy - stopping structural energy minimisation