 vasp.5.4.4.18Apr17-6-g9f103f2a35 (build Oct 20 2021 08:33:53) complex
 executed on             LinuxGNU date 2024.06.01  22:02:18

 INCAR:
 POTCAR:    PAW_PBE C 08Apr2002
 POTCAR:    PAW_PBE H 15Jun2001
 POTCAR:    PAW_PBE O 08Apr2002
 POTCAR:    PAW_PBE Si 05Jan2001
 POTCAR:    PAW_PBE W 08Apr2002
 POTCAR:    PAW_PBE C 08Apr2002
   VRHFIN =C: s2p2

   TITEL  = PAW_PBE C 08Apr2002
   POMASS =   12.011; ZVAL   =    4.000    mass and valenz
   ENMAX  =  400.000; ENMIN  =  300.000 eV

 POTCAR:    PAW_PBE H 15Jun2001
   VRHFIN =H: ultrasoft test

   TITEL  = PAW_PBE H 15Jun2001
   POMASS =    1.000; ZVAL   =    1.000    mass and valenz
   ENMAX  =  250.000; ENMIN  =  200.000 eV

 POTCAR:    PAW_PBE O 08Apr2002
   VRHFIN =O: s2p4

[...]

 POTCAR:    PAW_PBE Si 05Jan2001
   VRHFIN =Si: s2p2

   TITEL  = PAW_PBE Si 05Jan2001
   POMASS =   28.085; ZVAL   =    4.000    mass and valenz
   ENMAX  =  245.345; ENMIN  =  184.009 eV

 POTCAR:    PAW_PBE W 08Apr2002
   VRHFIN =W : 6s5d

   TITEL  = PAW_PBE W 08Apr2002
   POMASS =  183.850; ZVAL   =    6.000    mass and valenz
   ENMAX  =  223.057; ENMIN  =  167.293 eV

 Optimization of the real space projectors (new method)

 maximal supplied QI-value         = 25.13
 optimisation between [QCUT,QGAM] = [ 11.31, 22.87] = [ 35.82,146.48] Ry
 Optimized for a Real-space Cutoff    1.00 Angstroem

   l    n(q)    QCUT    max X(q) W(low)/X(q) W(high)/X(q)  e(spline)
   0      7    11.310   115.676    0.43E-03    0.13E-02    0.19E-06
   0      7    11.310    87.132    0.43E-03    0.13E-02    0.18E-06
   1      6    11.310     4.429    0.42E-03    0.74E-03    0.11E-06
   1      6    11.310     2.733    0.34E-03    0.55E-03    0.92E-07
 Optimization of the real space projectors (new method)

[...]

   l    n(q)    QCUT    max X(q) W(low)/X(q) W(high)/X(q)  e(spline)
   0      8    11.310   159.560    0.27E-03    0.30E-03    0.39E-07
   0      8    11.310   115.863    0.27E-03    0.30E-03    0.38E-07
   1      7    11.310    88.339    0.28E-03    0.28E-03    0.77E-07
   1      7    11.310    48.592    0.27E-03    0.27E-03    0.74E-07
 Optimization of the real space projectors (new method)

 maximal supplied QI-value         = 13.61
 optimisation between [QCUT,QGAM] = [ 11.43, 22.86] = [ 36.58,146.31] Ry
 Optimized for a Real-space Cutoff    1.56 Angstroem

   l    n(q)    QCUT    max X(q) W(low)/X(q) W(high)/X(q)  e(spline)
   2     10    11.429   130.855    0.22E-03    0.64E-03    0.11E-05
   2     10    11.429   114.007    0.22E-03    0.64E-03    0.11E-05
   0     11    11.429    84.709    0.39E-04    0.67E-04    0.23E-06
   0     11    11.429    49.163    0.35E-04    0.62E-04    0.21E-06
   1     10    11.429    15.765    0.84E-04    0.15E-03    0.24E-06
   1     10    11.429    10.638    0.58E-04    0.12E-03    0.19E-06

  PAW_PBE C 08Apr2002                   :
  PAW_PBE H 15Jun2001                   :
  PAW_PBE O 08Apr2002                   :
  PAW_PBE Si 05Jan2001                  :
  PAW_PBE W 08Apr2002                   :

 POSCAR:  C  H  O Si  W
  positions in direct lattice
  velocities in cartesian coordinates
 exchange correlation table for  LEXCH =        9
   RHO(1)=    0.500       N(1)  =     2000
   RHO(2)=  100.500       N(2)  =     4000

 VTST: version 3.2, (02/03/18)

 CHAIN: initializing optimizer

 OPT: Using Quick-Min optimizer
 OPT: QM, Init
 OPT: QM, MAXMOVE       0.200000
 OPT: QM, TIMESTEP      0.100000

 CHAIN: Read ICHAIN            0
 CHAIN: Running the NEB
 NEB:          SPRING     -5.000000
 NEB:          LCLIMB      T
 NEB:     LTANGENTOLD      F
 NEB:           LDNEB      F
 NEB:        LDNEBORG      F
 NEB:        LNEBCELL      F
 NEB:          EFIRST      0.000000
 NEB:           ELAST      0.000000

 POSCAR:  C  H  O Si  W
  positions in cartesian coordinates

 POSCAR:  C  H  O Si  W
  positions in cartesian coordinates

 ion  position               nearest neighbor table
   1  0.510  0.609  0.768-  49 1.10  50 1.29   3 1.54   2 1.75 277 2.21
   2  0.537  0.520  0.764-  50 1.30 211 1.36   4 1.52   1 1.75 277 2.07
   3  0.542  0.683  0.761-  52 1.10  53 1.10  51 1.10   1 1.54
   4  0.526  0.462  0.804-  54 1.10  56 1.10  55 1.10   2 1.52
   5  0.762  0.159  0.651- 131 0.97
   6  0.926  0.334  0.356-  79 0.98
   7  0.793  0.262  0.373- 114 0.97
   8  0.975  0.999  0.325- 123 0.97
   9  0.626  0.019  0.375- 125 0.98
  10  0.821  0.050  0.369- 143 0.97
  11  0.750  0.196  0.458- 181 0.98
  12  0.915  0.305  0.510- 186 0.97
  13  0.583  0.359  0.306- 191 0.97
  14  0.892  0.391  0.616-  97 0.98
  15  0.590  0.416  0.614- 142 0.97
  16  0.593  0.926  0.578- 184 0.99
  17  0.034  0.394  0.652- 190 0.97
  18  0.935  0.475  0.454- 179 0.98
  19  0.746  0.585  0.422-  93 1.00
  20  0.799  0.439  0.635- 171 0.97
  21  0.591  0.624  0.378- 105 0.99
  22  0.718  0.701  0.383- 128 0.99
  23  0.841  0.598  0.420- 134 0.98
  24  0.005  0.659  0.358- 139 0.97
  25  0.828  0.768  0.468- 180 0.99
  26  0.876  0.653  0.722-  59 0.97
  27  0.520  0.041  0.422- 141 0.99
  28  0.223  0.035  0.393- 182 1.00
  29  0.216  0.293  0.319- 197 0.99
  30  0.158  0.385  0.279- 188 0.97
  31  0.342  0.211  0.331- 189 0.98
  32  0.223  0.101  0.323- 196 0.97
  33  0.511  0.879  0.547- 199 0.97
  34  0.385  0.300  0.648-  84 0.97
  35  0.245  0.148  0.598- 135 0.98
  36  0.315  0.542  0.442-  58 0.99
  37  0.409  0.494  0.406- 147 0.98
  38  0.398  0.848  0.389- 185 0.97
  39  0.244  0.711  0.294- 193 0.97
  40  0.312  0.474  0.369- 194 0.98
  41  0.405  0.639  0.339- 195 0.97
  42  0.139  0.543  0.352- 187 0.98
  43  0.593  0.753  0.352-  88 0.97
  44  0.469  0.917  0.444- 198 0.99
  45  0.121  0.379  0.612- 107 0.97
  46  0.072  0.720  0.646- 138 0.97
  47  0.244  0.439  0.682- 183 0.97
  48  0.245  0.871  0.669- 192 0.97
  49  0.476  0.609  0.796-   1 1.10
  50  0.551  0.577  0.791-   1 1.29   2 1.30
  51  0.551  0.710  0.797-   3 1.10
  52  0.515  0.718  0.738-   3 1.10
  53  0.583  0.674  0.741-   3 1.10
  54  0.519  0.487  0.841-   4 1.10
  55  0.487  0.430  0.794-   4 1.10
  56  0.562  0.424  0.806-   4 1.10
  57  0.369  0.704  0.439- 231 1.66 266 1.68
  58  0.347  0.559  0.420-  36 0.99 266 1.67
  59  0.861  0.621  0.696-  26 0.97 237 1.64
  60  0.349  0.011  0.531- 242 1.68 275 1.70
[...]
 219  0.214  0.531  0.510- 178 1.61 177 1.63 137 1.66 174 1.66 230 3.10 263 3.14
 220  0.915  0.811  0.496- 102 1.65 180 1.65  86 1.66  91 1.66 233 2.99 241 3.03
 221  0.521  0.166  0.426- 113 1.64  64 1.65 141 1.66 121 1.67 252 3.08 235 3.13
 222  0.419  0.223  0.589-  84 1.64 201 1.66 101 1.68 161 1.69 262 3.14 275 3.14
 223  0.083  0.194  0.407-  63 1.64 144 1.65  89 1.65 157 1.66 216 3.11 215 3.13 269 3.14
 224  0.702  0.100  0.487-  96 1.64 165 1.65  62 1.65 181 1.66 235 3.09 225 3.10 259 3.15
 225  0.665  0.953  0.437-  95 1.53 165 1.66 125 1.66 156 1.67 271 2.83 258 3.06 224 3.10
 226  0.650  0.559  0.430- 105 1.65 163 1.65  93 1.67  99 1.68 234 3.07
 227  0.198  0.968  0.464- 136 1.50 182 1.64 159 1.66 115 1.67 245 3.01 242 3.06 268 3.07
 228  0.214  0.423  0.604-  83 1.63 178 1.63 107 1.64 183 1.65
 229  0.673  0.869  0.594- 184 1.62 116 1.64  98 1.68 206 1.70 256 2.90
 230  0.216  0.697  0.539- 176 1.63 169 1.63 202 1.65 137 1.65 245 3.09 219 3.10 274 3.13
 231  0.369  0.790  0.459-  73 1.65 104 1.66  57 1.66 185 1.68
 232  0.797  0.943  0.595- 140 1.66  98 1.66 109 1.67 205 1.68 241 2.85 233 2.99 259 3.14
 233  0.879  0.967  0.512-  72 1.60  91 1.62 109 1.65 117 1.65 220 2.99 232 2.99 257 3.05 248 3.14

 234  0.576  0.629  0.512-  99 1.58 166 1.63 100 1.63 133 1.65 244 3.01 226 3.07 218 3.14 276 3.15

[...]

 273  0.287  0.265  0.459- 173 1.62 122 1.63  67 1.66 152 1.67 251 3.02 269 3.12
 274  0.088  0.680  0.568- 162 1.63 138 1.63 108 1.64 169 1.65 270 3.09 230 3.13
 275  0.354  0.072  0.578- 161 1.63  69 1.66 208 1.69  60 1.70 242 2.38 261 2.74 222 3.14
 276  0.488  0.535  0.574- 133 1.65  77 1.65  85 1.68 127 1.69 253 2.93 234 3.15
 277  0.491  0.545  0.701- 210 1.72 124 2.02  77 2.04 211 2.05   2 2.07   1 2.21 253 3.25

  LATTYP: Found a simple orthorhombic cell.
 ALAT       =    18.1212369514
 B/A-ratio  =     1.2919258579
 C/A-ratio  =     1.4835282260

  Lattice vectors:

 A1 = (   0.0000000000, -18.1212369514,   0.0000000000)
 A2 = ( -23.4112945954,   0.0000000000,   0.0000000000)
 A3 = (   0.0000000000,   0.0000000000, -26.8833665073)

Analysis of symmetry for initial positions (statically):
 Subroutine PRICEL returns:
 Original cell was already a primitive cell.

 Routine SETGRP: Setting up the symmetry group for a
 simple orthorhombic supercell.

 Subroutine GETGRP returns: Found  1 space group operations
 (whereof  1 operations were pure point group operations)
 out of a pool of  8 trial point group operations.

The static configuration has the point symmetry C_1 .

Analysis of symmetry for dynamics (positions and initial velocities):
 Subroutine PRICEL returns:
 Original cell was already a primitive cell.

[...]

The dynamic configuration has the point symmetry C_1 .

Analysis of constrained symmetry for selective dynamics:
 Subroutine PRICEL returns:
 Original cell was already a primitive cell.

 Routine SETGRP: Setting up the symmetry group for a
 simple orthorhombic supercell.

 Subroutine GETGRP returns: Found  1 space group operations
 (whereof  1 operations were pure point group operations)
 out of a pool of  8 trial point group operations.

The constrained configuration has the point symmetry C_1 .

 Subroutine INISYM returns: Found  1 space group operations
 (whereof  1 operations are pure point group operations),
 and found     1 'primitive' translations

 KPOINTS: KPOINTS created by Atomic Simulation Env

Automatic generation of k-mesh.
Space group operators:
 irot       det(A)        alpha          n_x          n_y          n_z        tau_x        tau_y        tau_z
    1     1.000000     0.000000     1.000000     0.000000     0.000000     0.000000     0.000000     0.000000

 Subroutine IBZKPT returns following result:

 Found      5 irreducible k-points:

 Following reciprocal coordinates:
            Coordinates               Weight
  0.000000  0.000000  0.000000      1.000000
  0.333333  0.000000  0.000000      2.000000
  0.000000  0.333333  0.000000      2.000000
  0.333333  0.333333  0.000000      2.000000
 -0.333333  0.333333  0.000000      2.000000

 Following cartesian coordinates:
            Coordinates               Weight
  0.000000  0.000000  0.000000      1.000000
  0.014238  0.000000  0.000000      2.000000
  0.000000  0.018395  0.000000      2.000000
  0.014238  0.018395  0.000000      2.000000
 -0.014238  0.018395  0.000000      2.000000

 SYSTEM =  unknown system
 POSCAR =   C  H  O Si  W

 Startparameter for this run:
   NWRITE =      2    write-flag & timer
   PREC   = normal    normal or accurate (medium, high low for compatibility)
   ISTART =      0    job   : 0-new  1-cont  2-samecut
   ICHARG =      2    charge: 1-file 2-atom 10-const
   ISPIN  =      1    spin polarized calculation?
   LNONCOLLINEAR =      F non collinear calculations
   LSORBIT =      F    spin-orbit coupling
   INIWAV =      1    electr: 0-lowe 1-rand  2-diag
   LASPH  =      T    aspherical Exc in radial PAW
[...]
   -.172E+01 -.365E+02 0.238E+03   0.224E+01 0.403E+02 -.245E+03   -.515E+00 -.386E+01 0.732E+01   0.452E-04 -.591E-05 0.763E-05
   0.444E+02 -.135E+02 0.191E+03   -.504E+02 0.169E+02 -.195E+03   0.618E+01 -.353E+01 0.404E+01   -.244E-05 -.361E-05 -.263E-04
   -.137E+01 0.498E+02 0.229E+03   0.729E+00 -.516E+02 -.236E+03   0.646E+00 0.182E+01 0.808E+01   0.276E-04 -.302E-04 -.335E-04
   0.676E+02 0.836E+01 -.657E+02   -.753E+02 -.886E+01 0.688E+02   0.768E+01 0.507E+00 -.306E+01   -.426E-03 0.241E-03 0.300E-04
   0.363E+02 -.837E+02 -.150E+03   -.387E+02 0.917E+02 0.151E+03   0.239E+01 -.800E+01 -.114E+01   -.393E-03 -.114E-03 -.410E-04
   0.147E+02 0.763E+02 -.103E+03   -.131E+02 -.843E+02 0.102E+03   -.164E+01 0.792E+01 0.128E+01   -.453E-03 -.335E-03 0.421E-03
   0.176E+02 0.173E+02 -.448E+01   -.229E+02 -.198E+02 0.894E+01   0.559E+01 0.252E+01 -.460E+01   -.140E-03 0.816E-04 0.198E-03
   0.286E+02 -.517E+02 0.534E+02   -.337E+02 0.561E+02 -.495E+02   0.525E+01 -.445E+01 -.403E+01   -.121E-03 0.583E-04 0.217E-04
   0.149E+02 -.264E+02 0.208E+03   -.170E+02 0.272E+02 -.216E+03   0.214E+01 -.795E+00 0.796E+01   -.683E-04 -.118E-04 0.963E-04
   -.763E+02 -.273E+02 0.198E+03   0.834E+02 0.284E+02 -.202E+03   -.723E+01 -.106E+01 0.394E+01   0.660E-04 0.938E-05 0.671E-04
   -.828E+02 -.366E+02 0.134E+03   0.898E+02 0.405E+02 -.134E+03   -.716E+01 -.403E+01 -.166E+00   -.358E-04 0.636E-04 0.854E-04
   -.102E+03 0.111E+02 0.154E+03   0.109E+03 -.130E+02 -.155E+03   -.795E+01 0.202E+01 0.104E+01   -.724E-04 0.300E-04 0.220E-04
   0.653E+00 -.694E+02 0.100E+03   0.645E+00 0.762E+02 -.962E+02   -.133E+01 -.693E+01 -.421E+01   0.975E-04 0.262E-04 -.152E-05
   -.326E+02 -.495E+02 0.219E+03   0.365E+02 0.539E+02 -.224E+03   -.406E+01 -.454E+01 0.558E+01   -.393E-04 0.263E-04 -.911E-04
   0.762E+02 0.224E+02 0.110E+03   -.821E+02 -.264E+02 -.112E+03   0.621E+01 0.436E+01 0.246E+01   -.202E-03 -.102E-04 0.436E-04
   0.492E+02 0.534E+02 -.111E+03   -.544E+02 -.598E+02 0.109E+03   0.516E+01 0.641E+01 0.151E+01   -.212E-03 -.673E-03 0.183E-03
   -.155E+02 -.702E+02 -.194E+03   0.176E+02 0.763E+02 0.200E+03   -.218E+01 -.613E+01 -.533E+01   -.179E-03 -.121E-03 0.213E-04
   0.158E+02 0.233E+02 -.224E+03   -.172E+02 -.261E+02 0.232E+03   0.138E+01 0.284E+01 -.779E+01   -.132E-03 -.278E-03 -.488E-03
   0.270E+02 -.760E+02 -.196E+03   -.270E+02 0.829E+02 0.201E+03   -.945E-02 -.693E+01 -.474E+01   -.458E-04 -.930E-04 -.674E-04
   0.630E+02 -.159E+02 -.170E+03   -.672E+02 0.159E+02 0.174E+03   0.424E+01 -.256E-01 -.388E+01   0.344E-03 0.521E-04 0.136E-03
   -.472E+02 -.141E+02 -.175E+03   0.497E+02 0.149E+02 0.178E+03   -.255E+01 -.798E+00 -.259E+01   0.846E-04 -.121E-03 -.154E-04
   -.166E+02 -.515E+02 -.170E+03   0.177E+02 0.541E+02 0.175E+03   -.105E+01 -.261E+01 -.479E+01   -.160E-02 0.649E-03 -.207E-03
   0.317E+02 -.688E+02 -.120E+03   -.349E+02 0.721E+02 0.117E+03   0.328E+01 -.328E+01 0.325E+01   -.440E-03 -.255E-04 0.335E-03
   -.640E+02 -.202E+02 -.121E+03   0.688E+02 0.196E+02 0.118E+03   -.482E+01 0.627E+00 0.282E+01   0.595E-04 0.601E-03 0.211E-03
   0.880E+01 -.153E+01 -.164E+03   -.959E+01 0.370E+01 0.169E+03   0.784E+00 -.222E+01 -.506E+01   0.455E-04 0.735E-03 -.671E-04
   0.513E+02 0.615E+02 -.118E+03   -.559E+02 -.645E+02 0.116E+03   0.463E+01 0.296E+01 0.132E+01   -.105E-02 0.140E-02 0.386E-03
   -.515E+02 0.641E+02 -.124E+03   0.559E+02 -.676E+02 0.125E+03   -.437E+01 0.352E+01 -.281E+00   -.239E-03 -.137E-03 0.273E-03
   -.155E+03 0.483E+02 0.339E+03   0.169E+03 -.597E+02 -.329E+03   -.142E+02 0.115E+02 -.971E+01   -.873E-03 0.712E-04 0.133E-03
   -.177E+03 0.426E+02 0.385E+03   0.205E+03 -.583E+02 -.394E+03   -.279E+02 0.163E+02 0.941E+01   -.808E-03 0.322E-03 0.727E-03
   -.191E+03 0.145E+03 -.944E+03   0.190E+03 -.185E+03 0.944E+03   0.164E+01 0.392E+02 0.241E+00   -.476E-03 -.350E-02 -.891E-02
   -.294E+02 0.225E+02 0.865E+02   0.524E+02 -.323E+02 -.116E+03   -.230E+02 0.987E+01 0.294E+02   0.885E-02 -.487E-02 0.260E-02
[...]
   -.527E+02 -.121E+02 0.215E+03   0.521E+02 0.110E+02 -.216E+03   0.487E+00 0.735E+00 0.825E+00   0.182E-03 0.106E-03 -.145E-03
   0.737E+02 -.380E+02 -.146E+03   -.678E+02 0.367E+02 0.143E+03   -.585E+01 0.140E+01 0.306E+01   0.265E-03 0.103E-03 0.732E-03
   -.869E+02 -.226E+02 0.378E+03   0.870E+02 0.206E+02 -.380E+03   -.170E+00 0.200E+01 0.166E+01   -.250E-03 0.207E-04 0.400E-03
   -.609E+02 0.987E+02 -.264E+03   0.607E+02 -.989E+02 0.266E+03   0.205E+00 0.162E+00 -.186E+01   -.288E-03 0.559E-03 0.111E-02
   -.103E+02 0.348E+00 0.298E+02   0.110E+02 -.358E+01 -.321E+02   -.967E+00 0.968E+01 0.178E+01   0.621E-03 0.551E-03 -.178E-03
   -.276E+02 0.853E+02 0.455E+03   0.276E+02 -.837E+02 -.457E+03   -.556E-01 -.175E+01 0.151E+01   0.197E-03 -.819E-05 -.118E-03
   0.932E+02 -.512E+01 -.254E+02   -.920E+02 0.729E+01 0.259E+02   -.123E+01 -.236E+01 -.794E+00   0.302E-03 0.288E-03 -.793E-03
   0.115E+03 0.162E+02 0.150E+03   -.109E+03 -.912E+01 -.154E+03   -.282E+02 -.230E+02 0.852E+01   -.721E-03 0.169E-03 -.406E-03
   -.230E+02 0.100E+03 -.405E+03   0.246E+02 -.984E+02 0.405E+03   -.159E+01 -.173E+01 0.366E+00   -.339E-03 -.185E-03 0.607E-04
   -.291E+02 0.321E+02 0.128E+03   0.291E+02 -.328E+02 -.127E+03   -.239E+00 0.774E+00 -.133E+01   -.150E-03 0.346E-03 0.153E-03
   0.582E+02 -.185E+02 -.366E+03   -.587E+02 0.192E+02 0.367E+03   0.477E+00 -.722E+00 -.847E+00   -.358E-03 0.535E-03 0.201E-04
   0.576E+02 -.598E+02 -.312E+03   -.587E+02 0.553E+02 0.312E+03   0.116E+01 0.449E+01 -.736E-01   0.115E-02 -.145E-02 0.154E-03
   0.978E+02 0.741E+02 -.189E+03   -.938E+02 -.703E+02 0.192E+03   -.404E+01 -.382E+01 -.337E+01   0.844E-03 0.863E-04 0.109E-02
   0.988E+02 0.634E+02 -.715E+03   -.100E+03 -.626E+02 0.714E+03   0.172E+01 -.298E+00 0.533E+00   -.458E-02 0.335E-02 -.205E-02
   0.323E+03 -.239E+03 -.138E+03   -.711E-13 0.122E-11 -.296E-11   -.324E+03 0.239E+03 0.138E+03   0.751E-01 -.101E+00 0.557E-01

 POSITION                                       TOTAL-FORCE (eV/Angst)
     11.94512     11.04260     20.65101        -0.003863     -0.000545     -0.004960
     12.57417      9.41729     20.54198        -0.017687     -0.009611     -0.006899
     12.69984     12.36886     20.45829         0.013618     -0.010710     -0.006781
     12.30488      8.36746     21.61309         0.006229     -0.011472     -0.003913
     17.84316      2.87944     17.50322         0.000364     -0.000144      0.000496
     21.68887      6.04983      9.57948         0.106460      0.077944     -0.011870
     18.57311      4.75615     10.03977         0.042486      0.118486      0.060170
     22.81522     18.09936      8.74523         0.114600      0.061912      0.047234
     14.64921      0.33808     10.08748         0.058896     -0.002935     -0.044248
     19.20987      0.90951      9.91976         0.126457      0.028446      0.013577
     17.55831      3.55833     12.31361        -0.107545     -0.218820     -0.129214
     21.43279      5.52010     13.70707        -0.000227      0.000326      0.001242
     13.66032      6.51363      8.22435        -0.098543     -0.131497      0.074411
     20.88821      7.07909     16.57345         0.000652     -0.000030     -0.000492
     13.80449      7.54564     16.50040        -0.006589     -0.000651      0.001226
     13.88672     16.78196     15.53599        -0.002777      0.000028     -0.001129
      0.79711      7.14018     17.51716        -0.000910      0.003744     -0.001234
     21.89589      8.60212     12.20778        -0.087446      0.134369      0.079621
     17.46807     10.60991     11.35790        -0.326025      0.166389     -0.030377
     18.70855      7.95889     17.08037         0.001590      0.000107     -0.003308
     13.83846     11.30524     10.16285         0.102391     -0.184715      0.081716
     16.81947     12.70510     10.30871        -0.028598      0.240161     -0.003990
     19.69248     10.82944     11.28016        -0.105562     -0.099726      0.021187
      0.11154     11.94157      9.61829         0.118400     -0.005876     -0.017069
     19.39295     13.90878     12.57986         0.224597     -0.037727     -0.044171
     20.50385     11.83896     19.39620         0.011199      0.004949     -0.002963
     12.17365      0.73842     11.33680         0.017898      0.124997     -0.089429
      5.22293      0.64038     10.57067        -0.007741     -0.368507      0.138501
      5.06559      5.31016      8.58199         0.183447     -0.198432      0.089289
      3.68730      6.97650      7.50000         0.014910     -0.102127      0.303539
      7.99605      3.81941      8.89229         0.091139     -0.086561      0.083220
      5.21407      1.82921      8.67630         0.006370      0.023906      0.164531
     11.97161     15.93610     14.69663        -0.000766      0.001708     -0.000891
      9.01605      5.43725     17.40902        -0.003500      0.004020      0.001603
      5.73245      2.68653     16.07020        -0.001923      0.002584      0.001796
      7.38348      9.82752     11.89413         0.239056      0.099388     -0.160092
      9.57419      8.95042     10.90633         0.129921     -0.106857     -0.106211
      9.32939     15.37220     10.45190         0.054443     -0.000133      0.141541
      5.71709     12.87720      7.91250        -0.118261     -0.018094      0.095428
      7.29827      8.58330      9.92689        -0.159350     -0.086574      0.003840
      9.49268     11.58787      9.10862        -0.109583      0.040369      0.015359
      3.26254      9.84269      9.46105        -0.019398     -0.200585     -0.110301
     13.88920     13.64839      9.47364        -0.121141     -0.093622      0.183384
     10.98006     16.61013     11.93160         0.321073      0.336307      0.174000
      2.84437      6.87593     16.44053        -0.008392     -0.005817     -0.004031
      1.69468     13.04298     17.36165         0.002069     -0.003982     -0.001537
      5.70959      7.95223     18.34284         0.001574      0.002951      0.001308
      5.72667     15.77729     17.99538         0.001205      0.005307     -0.000617
     11.15268     11.03242     21.40928        -0.000080      0.007627     -0.002012
     12.90964     10.44859     21.26620        -0.006622     -0.010109     -0.007763
     12.90592     12.86809     21.41677         0.037794     -0.021586     -0.008257
     12.05740     13.00907     19.83739         0.009149      0.002992      0.010326
     13.64218     12.22192     19.91187        -0.000931     -0.019876     -0.027658
     12.15467      8.83168     22.59776        -0.014659     -0.011628     -0.008121
     11.40443      7.79263     21.35326         0.026605     -0.040736     -0.009412
     13.16756      7.68851     21.66584         0.027992      0.018720      0.002373
      8.63740     12.74900     11.80180        -0.282731      0.124910     -0.242750
      8.11940     10.13372     11.30145        -0.053607      0.607999      0.008270
     20.14922     11.25011     18.71378        -0.008120     -0.000461     -0.013487
      8.16735      0.20690     14.26933         0.002468      0.008498      0.002774
[...]
      5.71814      7.71222     11.31648         0.061009     -0.115566     -0.045663
     15.41693      6.98005     12.10687        -0.162779     -0.433593     -0.739826
     10.79753      6.75064     14.21611         0.003137     -0.000436     -0.002265
      7.89661     11.69049     10.72869        -0.094994     -0.060535      0.066924
     18.79691      9.64606     15.58008        -0.003247      0.003090     -0.001930
      1.62029     17.28844     12.91761        -0.330586      6.452559     -0.497767
      4.96103      3.61769     10.04353        -0.088329     -0.040352      0.156841
      1.83153      9.95162     13.29887         0.010766     -0.182367     -0.276012
     13.05344     16.44546     12.76235       -22.323009    -15.912447      4.731267
     16.80299     11.59475     16.38816        -0.001074      0.000601     -0.002142
      6.71066      4.80730     12.34244        -0.184364      0.060308     -0.762278
      2.05109     12.32440     15.26128        -0.001000     -0.000008     -0.000822
      8.28187      1.31243     15.55111        -0.003826      0.002915      0.001787
     11.43369      9.69961     15.42958        -0.007820      0.002581     -0.010982
     11.49145      9.86914     18.83656        -0.031947     -0.016495      0.008537
    total drift:                               -0.831505     -0.419586      0.264635

  FREE ENERGIE OF THE ION-ELECTRON SYSTEM (eV)
  free  energy   TOTEN  =     -1892.60946903 eV

  energy  without entropy=    -1892.60946903  energy(sigma->0) =    -1892.60946903

 d Force = 0.2270166E-03[ 0.148E-03, 0.306E-03]  d Energy = 0.2334591E-03-0.644E-05
 d Force =-0.1122192E+01[-0.112E+01,-0.112E+01]  d Ewald  =-0.1122192E+01-0.182E-07

 NEB: the previous image is higher in energy: F
 NEB: the next image is higher in energy    : F
 NEB: image is at an extrema
 NEB: diff energy (min, max):     1.575804    1.585787

 NEB: Tangent
      0.29492      0.02757      0.31211
     -0.23599     -0.04777     -0.24166
      0.08831      0.02867      0.00747
     -0.05707     -0.01614     -0.13046
     -0.00009      0.00064      0.00033
      0.00000      0.00000      0.00000
      0.00000      0.00000      0.00000
      0.00000      0.00000      0.00000
      0.00000      0.00000      0.00000
      0.00000      0.00000      0.00000
      0.00000      0.00000      0.00000
     -0.00021     -0.00004      0.00071
      0.00000      0.00000      0.00000
     -0.00013      0.00027      0.00072
     -0.01295     -0.00264      0.00598
     -0.00021     -0.00085      0.00156
     -0.00045     -0.00061      0.00096
      0.00000      0.00000      0.00000
      0.00000      0.00000      0.00000
      0.00008     -0.00001     -0.00092
      0.00000      0.00000      0.00000
      0.00000      0.00000      0.00000
      0.00000      0.00000      0.00000
      0.00000      0.00000      0.00000
      0.00000      0.00000      0.00000
     -0.00292     -0.00176      0.00136
      0.00000      0.00000      0.00000
      0.00000      0.00000      0.00000
      0.00000      0.00000      0.00000
      0.00000      0.00000      0.00000
      0.00000      0.00000      0.00000
      0.00000      0.00000      0.00000
     -0.00018      0.00126     -0.00041
      0.01075      0.00227      0.00218
      0.00064      0.00060     -0.00010
      0.00000      0.00000      0.00000
      0.00000      0.00000      0.00000
      0.00000      0.00000      0.00000
      0.00000      0.00000      0.00000
      0.00000      0.00000      0.00000
      0.00000      0.00000      0.00000
      0.00000      0.00000      0.00000
      0.00000      0.00000      0.00000
      0.00000      0.00000      0.00000
     -0.00046      0.00023      0.00012
     -0.00082      0.00019      0.00009
      0.00245     -0.00220     -0.00038
     -0.00132     -0.00118     -0.00028
      0.20092      0.04419      0.17325
     -0.32122      0.36534      0.37385
      0.07189      0.15861     -0.07528
     -0.00897     -0.11824     -0.02462
      0.06922      0.03905     -0.02121
     -0.02467      0.02166     -0.13650
     -0.02893     -0.10385     -0.03537
     -0.00256      0.05218     -0.13422
      0.00000      0.00000      0.00000
      0.00000      0.00000      0.00000
      0.00241     -0.00163     -0.00140
      0.00099     -0.00470      0.00033
[...]
      0.00000      0.00000      0.00000
      0.00000      0.00000      0.00000
     -0.00103     -0.00766     -0.00135
      0.00000      0.00000      0.00000
      0.00066     -0.00021     -0.00006
      0.00000      0.00000      0.00000
      0.00000      0.00000      0.00000
      0.00000      0.00000      0.00000
      0.00000      0.00000      0.00000
     -0.00000     -0.00153      0.00073
      0.00000      0.00000      0.00000
     -0.00016      0.00006     -0.00001
      0.00086     -0.00448      0.00077
      0.01270     -0.02983      0.01088
     -0.05822     -0.05794     -0.07826

 NEB: forces: par spring, perp REAL, dneb     1.409415    0.157466    0.000000
 NEB: distance to prev, next image, angle between     1.018970    1.300853   94.514199
 NEB: projections on to tangent (spring, REAL)     1.409415   -0.000762

 stress matrix after NEB project (eV)
    -31.96631     -0.18341      0.63343
     -0.18341    -31.65090     -0.66972
      0.63343     -0.66972    -22.22581
  FORCES: max atom, RMS     0.049674    0.009461
  FORCE total and by dimension    0.157468    0.040895
  Stress total and by dimension   50.193407   31.966315
 OPT: skip step - force has converged

 reached required accuracy - stopping structural energy minimisation