 vasp.5.4.4.18Apr17-6-g9f103f2a35 (build Oct 20 2021 08:33:53) complex
 executed on             LinuxGNU date 2025.03.11  14:14:14

 INCAR:
 POTCAR:    PAW_PBE C 08Apr2002
 POTCAR:    PAW_PBE H 15Jun2001
 POTCAR:    PAW_PBE O 08Apr2002
 POTCAR:    PAW_PBE Si 05Jan2001
 POTCAR:    PAW_PBE W 08Apr2002
 POTCAR:    PAW_PBE C 08Apr2002
   VRHFIN =C: s2p2

   TITEL  = PAW_PBE C 08Apr2002
   POMASS =   12.011; ZVAL   =    4.000    mass and valenz
   ENMAX  =  400.000; ENMIN  =  300.000 eV

 POTCAR:    PAW_PBE H 15Jun2001
   VRHFIN =H: ultrasoft test

   TITEL  = PAW_PBE H 15Jun2001
   POMASS =    1.000; ZVAL   =    1.000    mass and valenz
   ENMAX  =  250.000; ENMIN  =  200.000 eV

 POTCAR:    PAW_PBE O 08Apr2002
   VRHFIN =O: s2p4

[...]

 POTCAR:    PAW_PBE Si 05Jan2001
   VRHFIN =Si: s2p2

   TITEL  = PAW_PBE Si 05Jan2001
   POMASS =   28.085; ZVAL   =    4.000    mass and valenz
   ENMAX  =  245.345; ENMIN  =  184.009 eV

 POTCAR:    PAW_PBE W 08Apr2002
   VRHFIN =W : 6s5d

   TITEL  = PAW_PBE W 08Apr2002
   POMASS =  183.850; ZVAL   =    6.000    mass and valenz
   ENMAX  =  223.057; ENMIN  =  167.293 eV

 Optimization of the real space projectors (new method)

 maximal supplied QI-value         = 25.13
 optimisation between [QCUT,QGAM] = [ 11.31, 22.87] = [ 35.82,146.48] Ry
 Optimized for a Real-space Cutoff    1.00 Angstroem

   l    n(q)    QCUT    max X(q) W(low)/X(q) W(high)/X(q)  e(spline)
   0      7    11.310   115.676    0.43E-03    0.13E-02    0.19E-06
   0      7    11.310    87.132    0.43E-03    0.13E-02    0.18E-06
   1      6    11.310     4.429    0.42E-03    0.74E-03    0.11E-06
   1      6    11.310     2.733    0.34E-03    0.55E-03    0.92E-07
 Optimization of the real space projectors (new method)

[...]

   l    n(q)    QCUT    max X(q) W(low)/X(q) W(high)/X(q)  e(spline)
   0      8    11.310   159.560    0.27E-03    0.30E-03    0.39E-07
   0      8    11.310   115.863    0.27E-03    0.30E-03    0.38E-07
   1      7    11.310    88.339    0.28E-03    0.28E-03    0.77E-07
   1      7    11.310    48.592    0.27E-03    0.27E-03    0.74E-07
 Optimization of the real space projectors (new method)

 maximal supplied QI-value         = 13.61
 optimisation between [QCUT,QGAM] = [ 11.43, 22.86] = [ 36.58,146.31] Ry
 Optimized for a Real-space Cutoff    1.56 Angstroem

   l    n(q)    QCUT    max X(q) W(low)/X(q) W(high)/X(q)  e(spline)
   2     10    11.429   130.855    0.22E-03    0.64E-03    0.11E-05
   2     10    11.429   114.007    0.22E-03    0.64E-03    0.11E-05
   0     11    11.429    84.709    0.39E-04    0.67E-04    0.23E-06
   0     11    11.429    49.163    0.35E-04    0.62E-04    0.21E-06
   1     10    11.429    15.765    0.84E-04    0.15E-03    0.24E-06
   1     10    11.429    10.638    0.58E-04    0.12E-03    0.19E-06

  PAW_PBE C 08Apr2002                   :
  PAW_PBE H 15Jun2001                   :
  PAW_PBE O 08Apr2002                   :
  PAW_PBE Si 05Jan2001                  :
  PAW_PBE W 08Apr2002                   :

 POSCAR:  C  H  O Si  W
  positions in direct lattice
  velocities in cartesian coordinates
 exchange correlation table for  LEXCH =        9
   RHO(1)=    0.500       N(1)  =     2000
   RHO(2)=  100.500       N(2)  =     4000

 VTST: version 3.2, (02/03/18)

 CHAIN: initializing optimizer

 OPT: Using LBFGS optimizer
 OPT: LBFGS, Init
 OPT: LBFGS, IMAGES              8
 OPT: LBFGS, MAXMOVE      0.200000
 OPT: LBFGS, LGLOBAL      T
 OPT: LBFGS, INVCURV      0.010000
 OPT: LBFGS, LLINEOPT      F
 OPT: LBFGS, FDSTEP       0.005000
 OPT: LBFGS, LAUTOSCALE      T
 OPT: LBFGS, DAMPING      2.000000

 CHAIN: Read ICHAIN            0
 CHAIN: Running the NEB
 NEB:          SPRING     -5.000000
 NEB:          LCLIMB      T
 NEB:     LTANGENTOLD      F
 NEB:           LDNEB      F
 NEB:        LDNEBORG      F
 NEB:        LNEBCELL      F
 NEB:          EFIRST      0.000000
 NEB:           ELAST      0.000000

 POSCAR:  C  H  O Si  W
  positions in cartesian coordinates

 POSCAR:  C  H  O Si  W
  positions in cartesian coordinates

 ion  position               nearest neighbor table
   1  0.608  0.396  0.703-  49 1.09  50 1.09   4 1.35
   2  0.544  0.582  0.796-  52 1.10  51 1.10  53 1.11   3 1.51
   3  0.544  0.571  0.741-  54 1.10   2 1.51 276 1.91
   4  0.607  0.434  0.746-  55 1.09  56 1.09   1 1.35
   5  0.761  0.103  0.651- 131 0.97
   6  0.926  0.279  0.356-  79 0.98
   7  0.793  0.207  0.373- 114 0.97
   8  0.975  0.944  0.325- 123 0.97
   9  0.626  0.963  0.375- 125 0.98
  10  0.821  0.995  0.369- 143 0.97
  11  0.750  0.141  0.458- 181 0.98
  12  0.915  0.249  0.509- 186 0.97
  13  0.583  0.304  0.306- 191 0.97
  14  0.892  0.334  0.616-  97 0.98
  15  0.588  0.361  0.610- 142 0.97
  16  0.593  0.871  0.578- 184 0.99
  17  0.034  0.338  0.652- 190 0.97
  18  0.935  0.420  0.454- 179 0.98
  19  0.746  0.530  0.422-  93 1.00
  20  0.800  0.384  0.637- 171 0.97
  21  0.591  0.569  0.378- 105 0.99
  22  0.718  0.646  0.383- 128 0.99
  23  0.841  0.542  0.420- 134 0.98
  24  0.005  0.604  0.358- 139 0.97
  25  0.828  0.712  0.468- 180 0.99
  26  0.881  0.598  0.719-  59 0.97
  27  0.520  0.986  0.422- 141 0.99
  28  0.223  0.980  0.393- 182 1.00
  29  0.216  0.238  0.319- 197 0.99
  30  0.158  0.330  0.279- 188 0.97
  31  0.342  0.156  0.331- 189 0.98
  32  0.223  0.046  0.323- 196 0.97
  33  0.511  0.826  0.547- 199 0.97
  34  0.370  0.235  0.648-  84 0.97
  35  0.243  0.093  0.599- 135 0.98
  36  0.315  0.487  0.442-  58 0.99
  37  0.409  0.439  0.406- 147 0.98
  38  0.398  0.793  0.389- 185 0.97
  39  0.244  0.655  0.294- 193 0.97
  40  0.312  0.418  0.369- 194 0.98
  41  0.405  0.584  0.339- 195 0.97
  42  0.139  0.488  0.352- 187 0.98
  43  0.593  0.698  0.352-  88 0.97
  44  0.469  0.861  0.444- 198 0.99
  45  0.123  0.324  0.613- 107 0.97
  46  0.075  0.663  0.646- 138 0.97
  47  0.244  0.389  0.682- 183 0.97
  48  0.246  0.815  0.670- 192 0.97
  49  0.584  0.345  0.698-   1 1.09
  50  0.635  0.414  0.672-   1 1.09
  51  0.587  0.571  0.813-   2 1.10
  52  0.513  0.546  0.815-   2 1.10
  53  0.533  0.639  0.805-   2 1.11
  54  0.577  0.603  0.721-   3 1.10
  55  0.633  0.484  0.750-   4 1.09
  56  0.581  0.417  0.778-   4 1.09
  57  0.369  0.648  0.439- 230 1.66 265 1.68
  58  0.347  0.504  0.420-  36 0.99 265 1.67
  59  0.859  0.567  0.697-  26 0.97 236 1.64
  60  0.348  0.959  0.531- 241 1.68 274 1.70
[...]
 218  0.214  0.476  0.510- 178 1.61 177 1.63 174 1.66 137 1.66 229 3.11 262 3.14
 219  0.915  0.756  0.496- 102 1.65 180 1.65  86 1.66  91 1.66 232 2.99 240 3.03
 220  0.521  0.110  0.426- 113 1.64  64 1.65 141 1.66 121 1.67 251 3.08 234 3.12
 221  0.418  0.170  0.590-  84 1.64 201 1.65 101 1.68 161 1.69 261 3.13 274 3.13
 222  0.083  0.139  0.407-  63 1.64 144 1.65  89 1.65 157 1.66 215 3.11 214 3.13 268 3.14
 223  0.702  0.045  0.487-  96 1.64 165 1.65  62 1.65 181 1.66 234 3.09 224 3.10 258 3.15
 224  0.665  0.898  0.437-  95 1.53 165 1.66 125 1.66 156 1.67 270 2.83 257 3.06 223 3.10
 225  0.650  0.504  0.430- 105 1.65 163 1.65  93 1.67  99 1.68 233 3.08
 226  0.198  0.912  0.464- 136 1.50 182 1.64 159 1.66 115 1.67 244 3.01 241 3.06 267 3.07
 227  0.216  0.367  0.604-  83 1.63 178 1.63 107 1.64 183 1.65
 228  0.673  0.813  0.595- 184 1.62 116 1.64  98 1.68 206 1.71 255 2.91
 229  0.217  0.642  0.539- 176 1.63 169 1.63 202 1.65 137 1.65 244 3.09 218 3.11 273 3.12
 230  0.369  0.735  0.459- 104 1.65  73 1.65  57 1.66 185 1.68
 231  0.797  0.888  0.596- 140 1.66  98 1.67 109 1.67 205 1.68 240 2.86 232 3.00
 232  0.880  0.912  0.512-  72 1.60  91 1.62 109 1.65 117 1.65 219 2.99 231 3.00 256 3.05 247 3.13

 233  0.577  0.575  0.512-  99 1.58 166 1.63 100 1.63 133 1.64 243 3.00 225 3.08 217 3.13 275 3.14

[...]

 272  0.287  0.210  0.459- 173 1.63 122 1.63  67 1.66 152 1.67 250 3.03 268 3.12
 273  0.088  0.626  0.568- 162 1.63 138 1.64 108 1.64 169 1.65 269 3.10 229 3.12 249 3.15
 274  0.353  0.021  0.578- 161 1.63  69 1.66 208 1.70  60 1.70 241 2.38 260 2.74 221 3.13
 275  0.489  0.482  0.574- 133 1.64  77 1.66  85 1.68 127 1.69 252 2.91 233 3.14
 276  0.496  0.512  0.699- 210 1.72   3 1.91 124 1.97  77 2.02 252 3.02

  LATTYP: Found a simple orthorhombic cell.
 ALAT       =    18.1212369514
 B/A-ratio  =     1.2919258579
 C/A-ratio  =     1.4835282260

  Lattice vectors:

 A1 = (   0.0000000000, -18.1212369514,   0.0000000000)
 A2 = ( -23.4112945954,   0.0000000000,   0.0000000000)
 A3 = (   0.0000000000,   0.0000000000, -26.8833665073)

Analysis of symmetry for initial positions (statically):
 Subroutine PRICEL returns:
 Original cell was already a primitive cell.

 Routine SETGRP: Setting up the symmetry group for a
 simple orthorhombic supercell.

 Subroutine GETGRP returns: Found  1 space group operations
 (whereof  1 operations were pure point group operations)
 out of a pool of  8 trial point group operations.

The static configuration has the point symmetry C_1 .

Analysis of symmetry for dynamics (positions and initial velocities):
 Subroutine PRICEL returns:
 Original cell was already a primitive cell.

[...]

The dynamic configuration has the point symmetry C_1 .

Analysis of constrained symmetry for selective dynamics:
 Subroutine PRICEL returns:
 Original cell was already a primitive cell.

 Routine SETGRP: Setting up the symmetry group for a
 simple orthorhombic supercell.

 Subroutine GETGRP returns: Found  1 space group operations
 (whereof  1 operations were pure point group operations)
 out of a pool of  8 trial point group operations.

The constrained configuration has the point symmetry C_1 .

 Subroutine INISYM returns: Found  1 space group operations
 (whereof  1 operations are pure point group operations),
 and found     1 'primitive' translations

 KPOINTS: KPOINTS created by Atomic Simulation Env

Automatic generation of k-mesh.
Space group operators:
 irot       det(A)        alpha          n_x          n_y          n_z        tau_x        tau_y        tau_z
    1     1.000000     0.000000     1.000000     0.000000     0.000000     0.000000     0.000000     0.000000

 Subroutine IBZKPT returns following result:

 Found      5 irreducible k-points:

 Following reciprocal coordinates:
            Coordinates               Weight
  0.000000  0.000000  0.000000      1.000000
  0.333333  0.000000  0.000000      2.000000
  0.000000  0.333333  0.000000      2.000000
  0.333333  0.333333  0.000000      2.000000
 -0.333333  0.333333  0.000000      2.000000

 Following cartesian coordinates:
            Coordinates               Weight
  0.000000  0.000000  0.000000      1.000000
  0.014238  0.000000  0.000000      2.000000
  0.000000  0.018395  0.000000      2.000000
  0.014238  0.018395  0.000000      2.000000
 -0.014238  0.018395  0.000000      2.000000

 SYSTEM =  unknown system
 POSCAR =   C  H  O Si  W

 Startparameter for this run:
   NWRITE =      2    write-flag & timer
   PREC   = normal    normal or accurate (medium, high low for compatibility)
   ISTART =      0    job   : 0-new  1-cont  2-samecut
   ICHARG =      2    charge: 1-file 2-atom 10-const
   ISPIN  =      1    spin polarized calculation?
   LNONCOLLINEAR =      F non collinear calculations
   LSORBIT =      F    spin-orbit coupling
[...]
   -.192E+01 -.366E+02 0.238E+03   0.244E+01 0.404E+02 -.245E+03   -.515E+00 -.386E+01 0.729E+01   -.248E-04 -.113E-04 0.135E-04
   0.443E+02 -.136E+02 0.191E+03   -.504E+02 0.171E+02 -.195E+03   0.618E+01 -.353E+01 0.405E+01   0.219E-04 -.124E-04 -.704E-04
   -.149E+01 0.498E+02 0.228E+03   0.855E+00 -.516E+02 -.236E+03   0.646E+00 0.182E+01 0.809E+01   -.384E-04 -.718E-06 -.699E-04
   0.678E+02 0.596E+01 -.672E+02   -.755E+02 -.627E+01 0.703E+02   0.773E+01 0.326E+00 -.302E+01   0.339E-03 -.522E-04 -.522E-03
   0.658E+02 -.704E+02 -.151E+03   -.714E+02 0.766E+02 0.151E+03   0.562E+01 -.619E+01 -.778E+00   -.129E-05 -.150E-03 -.471E-03
   0.165E+02 0.759E+02 -.105E+03   -.150E+02 -.839E+02 0.104E+03   -.149E+01 0.792E+01 0.124E+01   0.240E-03 -.102E-03 0.816E-04
   0.174E+02 0.173E+02 -.553E+01   -.228E+02 -.197E+02 0.997E+01   0.559E+01 0.252E+01 -.459E+01   -.187E-03 0.621E-04 0.874E-04
   0.287E+02 -.518E+02 0.526E+02   -.338E+02 0.562E+02 -.487E+02   0.525E+01 -.446E+01 -.402E+01   -.761E-04 0.514E-04 -.286E-04
   0.150E+02 -.263E+02 0.208E+03   -.170E+02 0.271E+02 -.216E+03   0.214E+01 -.795E+00 0.797E+01   -.230E-04 0.375E-05 -.700E-04
   -.764E+02 -.272E+02 0.198E+03   0.835E+02 0.283E+02 -.202E+03   -.723E+01 -.106E+01 0.394E+01   -.753E-04 -.232E-04 0.159E-04
   -.829E+02 -.367E+02 0.134E+03   0.899E+02 0.406E+02 -.134E+03   -.716E+01 -.403E+01 -.163E+00   -.113E-03 0.378E-04 -.239E-04
   -.102E+03 0.112E+02 0.154E+03   0.109E+03 -.131E+02 -.155E+03   -.796E+01 0.202E+01 0.105E+01   -.926E-04 -.727E-05 -.690E-04
   0.409E+00 -.695E+02 0.100E+03   0.890E+00 0.762E+02 -.959E+02   -.133E+01 -.693E+01 -.420E+01   -.400E-04 -.736E-05 0.764E-04
   -.324E+02 -.495E+02 0.219E+03   0.363E+02 0.540E+02 -.224E+03   -.406E+01 -.454E+01 0.559E+01   -.300E-04 0.308E-04 -.170E-03
   0.761E+02 0.223E+02 0.109E+03   -.820E+02 -.264E+02 -.111E+03   0.621E+01 0.436E+01 0.246E+01   0.854E-04 0.115E-03 -.596E-04
   0.505E+02 0.520E+02 -.111E+03   -.558E+02 -.583E+02 0.110E+03   0.528E+01 0.627E+01 0.163E+01   -.109E-03 -.246E-04 -.492E-03
   -.201E+02 -.667E+02 -.196E+03   0.228E+02 0.725E+02 0.202E+03   -.264E+01 -.582E+01 -.547E+01   -.206E-03 0.280E-03 -.908E-04
   0.184E+02 0.123E+02 -.227E+03   -.204E+02 -.142E+02 0.235E+03   0.200E+01 0.189E+01 -.795E+01   0.159E-03 -.457E-03 -.166E-03
   0.251E+02 -.747E+02 -.198E+03   -.250E+02 0.816E+02 0.203E+03   -.986E-01 -.687E+01 -.483E+01   -.395E-03 -.589E-03 0.211E-03
   0.151E+02 0.729E+02 -.127E+03   -.181E+02 -.779E+02 0.126E+03   0.298E+01 0.495E+01 0.753E+00   -.151E-03 0.461E-03 -.419E-03
   -.497E+02 0.140E+02 -.881E+02   0.530E+02 -.123E+02 0.838E+02   -.330E+01 -.176E+01 0.437E+01   -.361E-03 0.143E-02 0.399E-03
   -.545E+02 -.363E+00 -.148E+03   0.593E+02 -.515E+00 0.150E+03   -.484E+01 0.906E+00 -.219E+01   -.368E-03 0.312E-03 0.139E-03
   0.404E+02 0.241E+02 -.155E+03   -.441E+02 -.273E+02 0.157E+03   0.378E+01 0.330E+01 -.251E+01   -.708E-03 0.704E-03 -.520E-03
   0.151E+02 -.669E+02 -.138E+03   -.163E+02 0.720E+02 0.139E+03   0.129E+01 -.512E+01 -.115E+01   -.856E-03 -.401E-03 -.388E-03
   -.445E+02 -.395E+02 -.126E+03   0.482E+02 0.424E+02 0.124E+03   -.375E+01 -.288E+01 0.271E+01   -.598E-03 0.125E-03 -.412E-03
   -.549E+02 -.226E+02 -.144E+03   0.581E+02 0.273E+02 0.145E+03   -.321E+01 -.479E+01 -.670E+00   -.268E-03 0.856E-04 -.153E-02
   0.137E+02 0.405E+02 -.171E+03   -.168E+02 -.422E+02 0.176E+03   0.316E+01 0.167E+01 -.456E+01   -.231E-03 0.500E-03 -.272E-03
   -.154E+03 0.504E+02 0.334E+03   0.168E+03 -.618E+02 -.325E+03   -.141E+02 0.115E+02 -.948E+01   -.648E-03 -.504E-03 0.343E-03
   -.177E+03 0.431E+02 0.380E+03   0.205E+03 -.588E+02 -.389E+03   -.279E+02 0.163E+02 0.954E+01   -.877E-03 0.293E-03 0.100E-03
   -.185E+03 0.140E+03 -.951E+03   0.177E+03 -.178E+03 0.955E+03   0.867E+01 0.379E+02 -.402E+01   0.640E-02 0.459E-02 0.191E-01
   -.299E+02 0.256E+02 0.840E+02   0.528E+02 -.351E+02 -.114E+03   -.229E+02 0.954E+01 0.296E+02   0.137E-02 0.755E-02 0.816E-04
[...]
   -.514E+02 -.131E+02 0.216E+03   0.508E+02 0.119E+02 -.218E+03   0.502E+00 0.759E+00 0.834E+00   0.180E-03 -.411E-03 -.118E-03
   0.779E+02 -.487E+02 -.156E+03   -.722E+02 0.463E+02 0.152E+03   -.574E+01 0.243E+01 0.334E+01   -.243E-03 -.126E-04 -.213E-03
   -.870E+02 -.219E+02 0.376E+03   0.871E+02 0.199E+02 -.378E+03   -.174E+00 0.201E+01 0.172E+01   -.481E-03 -.105E-03 0.143E-03
   -.642E+02 0.958E+02 -.263E+03   0.642E+02 -.961E+02 0.264E+03   0.198E-01 0.264E+00 -.179E+01   0.299E-03 -.170E-03 -.165E-05
   -.106E+02 0.156E+01 0.285E+02   0.113E+02 -.471E+01 -.309E+02   -.992E+00 0.960E+01 0.182E+01   -.989E-03 0.396E-03 -.838E-04
   -.282E+02 0.849E+02 0.454E+03   0.282E+02 -.833E+02 -.456E+03   -.465E-01 -.174E+01 0.155E+01   -.373E-03 0.113E-03 -.126E-03
   0.925E+02 -.469E+01 -.290E+02   -.911E+02 0.692E+01 0.293E+02   -.135E+01 -.236E+01 -.602E+00   0.187E-03 0.497E-04 0.137E-03
   0.115E+03 0.166E+02 0.147E+03   -.109E+03 -.939E+01 -.151E+03   -.282E+02 -.231E+02 0.860E+01   -.486E-03 0.660E-03 0.179E-03
   -.212E+02 0.913E+02 -.404E+03   0.231E+02 -.898E+02 0.404E+03   -.184E+01 -.162E+01 0.516E+00   -.179E-02 0.468E-03 0.119E-02
   -.300E+02 0.294E+02 0.125E+03   0.300E+02 -.302E+02 -.125E+03   -.208E+00 0.854E+00 -.106E+01   -.460E-04 -.106E-03 -.471E-03
   0.565E+02 -.169E+02 -.367E+03   -.569E+02 0.177E+02 0.368E+03   0.363E+00 -.735E+00 -.908E+00   -.309E-03 -.330E-03 -.860E-03
   0.578E+02 -.595E+02 -.313E+03   -.587E+02 0.549E+02 0.314E+03   0.942E+00 0.465E+01 -.132E+00   0.302E-03 0.118E-02 -.577E-03
   0.110E+03 0.860E+02 -.211E+03   -.106E+03 -.815E+02 0.213E+03   -.424E+01 -.450E+01 -.203E+01   -.124E-02 0.220E-02 0.573E-03
   0.629E+02 0.107E+03 -.774E+03   -.645E+02 -.104E+03 0.777E+03   0.159E+01 -.345E+01 -.264E+01   -.133E-03 0.505E-02 0.180E-03
   0.311E+03 -.218E+03 -.116E+03   0.426E-12 0.782E-12 0.773E-11   -.311E+03 0.218E+03 0.116E+03   -.117E-02 0.332E-01 -.773E-01

 POSITION                                       TOTAL-FORCE (eV/Angst)
     14.23858      7.16730     18.89533        -0.004338     -0.021191      0.023524
     12.73718     10.53809     21.40749         0.017553     -0.005200     -0.001686
     12.74203     10.33934     19.91217         0.015216      0.002223      0.000813
     14.20886      7.86848     20.04357        -0.007709     -0.025567      0.004625
     17.82185      1.85865     17.51362         0.000891      0.001558      0.000874
     21.68887      5.04983      9.57948         0.102653      0.073542     -0.025892
     18.57311      3.75615     10.03977         0.038517      0.114457      0.045919
     22.81522     17.09936      8.74523         0.110170      0.057098      0.029936
     14.64921     17.45932     10.08748         0.055118     -0.004357     -0.058233
     19.20987     18.03075      9.91976         0.121336      0.024559     -0.000425
     17.55831      2.55833     12.31361        -0.108742     -0.219352     -0.130071
     21.43150      4.52055     13.68758        -0.000520      0.000345     -0.000634
     13.66032      5.51363      8.22435        -0.100488     -0.127593      0.043913
     20.87301      6.05930     16.54936        -0.001212      0.004488     -0.003953
     13.76487      6.55044     16.40770        -0.005928      0.002645      0.002290
     13.88819     15.77976     15.54264        -0.001184      0.004232     -0.003246
      0.78895      6.11891     17.53563         0.003247      0.004234      0.004234
     21.89589      7.60212     12.20778        -0.089243      0.131438      0.070351
     17.46807      9.60991     11.35790        -0.329833      0.165126     -0.039940
     18.73812      6.96508     17.11372        -0.000887     -0.002075      0.003918
     13.83846     10.30524     10.16285         0.097348     -0.185129      0.067646
     16.81947     11.70510     10.30871        -0.029469      0.240676     -0.017587
     19.69248      9.82944     11.28016        -0.104612     -0.098377      0.011410
      0.11154     10.94157      9.61829         0.111918     -0.007787     -0.029964
     19.39295     12.90878     12.57986         0.232792     -0.036144     -0.049834
     20.62892     10.84175     19.33438        -0.002763     -0.004410     -0.004664
     12.17365     17.85965     11.33680         0.013200      0.129270     -0.099602
      5.22293     17.76162     10.57067        -0.009411     -0.356425      0.121413
      5.06559      4.31016      8.58199         0.181222     -0.199158      0.070889
      3.68730      5.97650      7.50000         0.016067     -0.077969      0.117298
      7.99605      2.81941      8.89229         0.087196     -0.089735      0.065914
      5.21407      0.82921      8.67630         0.005077      0.018406      0.150695
     11.96299     14.96788     14.69580         0.001744     -0.000889     -0.001407
      8.65806      4.25268     17.40962         0.001922     -0.004614      0.003707
      5.70005      1.68753     16.09086        -0.000078      0.005310      0.003936
      7.38348      8.82752     11.89413         0.237667      0.098120     -0.172736
      9.57419      7.95042     10.90633         0.121976     -0.108392     -0.117457
      9.32939     14.37220     10.45190         0.063343     -0.000991      0.127561
      5.71709     11.87720      7.91250        -0.103488     -0.016661      0.041815
      7.29827      7.58330      9.92689        -0.162641     -0.089783     -0.009394
      9.49268     10.58787      9.10862        -0.109468      0.039067     -0.002629
      3.26254      8.84269      9.46105        -0.022732     -0.203732     -0.120877
     13.88920     12.64839      9.47364        -0.127855     -0.095926      0.166179
     10.98006     15.61013     11.93160         0.308241      0.328252      0.159820
      2.88288      5.86977     16.48897         0.001927     -0.001179     -0.001580
      1.75864     12.01757     17.37916         0.000200     -0.000159      0.000354
      5.71422      7.05305     18.33746        -0.001206      0.000009      0.003344
      5.76216     14.77305     18.01354        -0.000307      0.000361      0.002272
     13.67071      6.24711     18.75667        -0.017272     -0.016958      0.008792
     14.85748      7.50181     18.05956        -0.003843     -0.021953      0.012103
     13.73289     10.35019     21.84793         0.014964     -0.007204     -0.000304
     11.99976      9.88952     21.90005         0.017652     -0.006819      0.001865
     12.47894     11.58763     21.63929         0.022758     -0.002705      0.008920
     13.50645     10.91885     19.36945         0.018768     -0.000478      0.000016
     14.81482      8.76592     20.17279         0.000519     -0.024007      0.010684
     13.61332      7.55398     20.90239        -0.016322     -0.012244      0.013319
      8.63740     11.74900     11.80180        -0.228272      0.121688     -0.202523
      8.11940      9.13372     11.30145        -0.097290      0.605560      0.024194
     20.11830     10.26920     18.74291         0.007161     -0.000103     -0.009144
      8.15697     17.38253     14.26552        -0.003489      0.000171     -0.002849
[...]
      5.71814      6.71222     11.31648         0.026591     -0.116197     -0.109997
     15.41693      5.98005     12.10687        -0.131418     -0.443403     -0.903467
     10.80116      5.75431     14.21531         0.006945     -0.005741     -0.002055
      7.89661     10.69049     10.72869        -0.111225     -0.068587     -0.042421
     18.78702      8.63186     15.58750        -0.002045      0.002286      0.001149
      1.62029     16.28844     12.91761        -0.316402      6.447763     -0.558450
      4.96103      2.61769     10.04353        -0.065983     -0.042464      0.059359
      1.83153      8.95162     13.29887         0.035844     -0.123613     -0.315201
     13.05344     15.44546     12.76235       -22.329986    -15.866383      4.720357
     16.80032     10.59034     16.39312        -0.004036     -0.002471     -0.004179
      6.71066      3.80730     12.34244        -0.214203      0.006288     -0.780379
      2.06184     11.33585     15.26128        -0.004153      0.001908     -0.001202
      8.26187      0.37164     15.54257         0.000243     -0.000263      0.001482
     11.44824      8.73376     15.44135        -0.003064     -0.006832      0.007335
     11.60584      9.28255     18.79255         0.011261      0.005055     -0.003316
    total drift:                               -0.010211      0.235066      0.050545

  FREE ENERGIE OF THE ION-ELECTRON SYSTEM (eV)
  free  energy   TOTEN  =     -1885.92418389 eV

  energy  without entropy=    -1885.92418389  energy(sigma->0) =    -1885.92418389

 d Force = 0.2216832E-03[ 0.159E-03, 0.284E-03]  d Energy = 0.2883967E-03-0.667E-04
 d Force = 0.3800470E+00[ 0.380E+00, 0.380E+00]  d Ewald  = 0.3800469E+00 0.113E-06

 NEB: the previous image is higher in energy: F
 NEB: the next image is higher in energy    : F
 NEB: image is at an extrema
 NEB: diff energy (min, max):     0.065033    1.169350

 NEB: Tangent
     -0.35372      0.07518     -0.02422
      0.02430      0.15553      0.02992
      0.10459      0.13899      0.03715
     -0.28338      0.08482     -0.01204
      0.00015     -0.00914      0.00250
      0.00000      0.00000      0.00000
      0.00000      0.00000      0.00000
      0.00000      0.00000      0.00000
      0.00000      0.00000      0.00000
      0.00000      0.00000      0.00000
      0.00000      0.00000      0.00000
      0.00063      0.00005     -0.00078
      0.00000      0.00000      0.00000
      0.00369     -0.00241      0.00270
     -0.08564     -0.01890     -0.01568
     -0.00250     -0.00774      0.00459
      0.00315      0.00185     -0.00475
      0.00000      0.00000      0.00000
      0.00000      0.00000      0.00000
      0.00487     -0.00091      0.00046
      0.00000      0.00000      0.00000
      0.00000      0.00000      0.00000
      0.00000      0.00000      0.00000
      0.00000      0.00000      0.00000
      0.00000      0.00000      0.00000
      0.02133     -0.00459     -0.01382
      0.00000      0.00000      0.00000
      0.00000      0.00000      0.00000
      0.00000      0.00000      0.00000
      0.00000      0.00000      0.00000
      0.00000      0.00000      0.00000
      0.00000      0.00000      0.00000
     -0.00481     -0.00775     -0.00569
      0.01695      0.00110     -0.00613
      0.00608     -0.00081     -0.00279
      0.00000      0.00000      0.00000
      0.00000      0.00000      0.00000
      0.00000      0.00000      0.00000
      0.00000      0.00000      0.00000
      0.00000      0.00000      0.00000
      0.00000      0.00000      0.00000
      0.00000      0.00000      0.00000
      0.00000      0.00000      0.00000
      0.00000      0.00000      0.00000
     -0.00089      0.00012      0.00023
      0.00490      0.00053      0.00056
     -0.00126      0.00129     -0.00144
     -0.02366      0.00290     -0.00128
     -0.38072      0.09443     -0.01057
     -0.30978      0.02586     -0.01326
      0.01182      0.18935      0.06899
      0.02607      0.13078      0.00156
     -0.01786      0.14442      0.01264
      0.08231      0.19043      0.06384
     -0.16726     -0.00698     -0.00988
     -0.27456      0.10635     -0.00198
      0.00000      0.00000      0.00000
      0.00000      0.00000      0.00000
      0.00016     -0.00240      0.00108
     -0.00617     -0.01376      0.00075
[...]
      0.00000      0.00000      0.00000
      0.00000      0.00000      0.00000
     -0.00151     -0.00757     -0.00145
      0.00000      0.00000      0.00000
      0.00053     -0.00262     -0.00056
      0.00000      0.00000      0.00000
      0.00000      0.00000      0.00000
      0.00000      0.00000      0.00000
      0.00000      0.00000      0.00000
     -0.00152     -0.00485      0.00220
      0.00000      0.00000      0.00000
     -0.00634     -0.00029      0.00052
      0.00407     -0.01549      0.00047
      0.00294     -0.00718     -0.02808
      0.23324     -0.05515      0.03085

 NEB: forces: par spring, perp REAL, dneb     5.047557    0.127431    0.000000
 NEB: distance to prev, next image, angle between     1.051774    2.061285  106.224952
 NEB: projections on to tangent (spring, REAL)     5.047557    0.010399

 stress matrix after NEB project (eV)
    -32.88486      0.37247      0.21437
      0.37247    -33.56754     -0.15154
      0.21437     -0.15154    -25.46940
  FORCES: max atom, RMS     0.033230    0.007696
  FORCE total and by dimension    0.127855    0.028055
  Stress total and by dimension   53.453713   33.567535
 OPT: skip step - force has converged

 reached required accuracy - stopping structural energy minimisation
 writing wavefunctions