 vasp.5.4.4.18Apr17-6-g9f103f2a35 (build Mar 12 2022 03:37:54) complex

 executed on IFC19.0.3.199_CrayMP date 2023.04.21  18:45:38

 INCAR:
 POTCAR:    PAW_PBE H 15Jun2001
 POTCAR:    PAW_PBE O 08Apr2002
 POTCAR:    PAW_PBE Si 05Jan2001
 POTCAR:    PAW_PBE W 08Apr2002

 POTCAR:    PAW_PBE H 15Jun2001
   VRHFIN =H: ultrasoft test

   TITEL  = PAW_PBE H 15Jun2001
   POMASS =    1.000; ZVAL   =    1.000    mass and valenz
   ENMAX  =  250.000; ENMIN  =  200.000 eV

 POTCAR:    PAW_PBE O 08Apr2002
   VRHFIN =O: s2p4

   TITEL  = PAW_PBE O 08Apr2002
   POMASS =   16.000; ZVAL   =    6.000    mass and valenz
   ENMAX  =  400.000; ENMIN  =  300.000 eV

 POTCAR:    PAW_PBE Si 05Jan2001
   VRHFIN =Si: s2p2

   TITEL  = PAW_PBE Si 05Jan2001
   POMASS =   28.085; ZVAL   =    4.000    mass and valenz
   ENMAX  =  245.345; ENMIN  =  184.009 eV

 POTCAR:    PAW_PBE W 08Apr2002
   VRHFIN =W : 6s5d

   TITEL  = PAW_PBE W 08Apr2002
   POMASS =  183.850; ZVAL   =    6.000    mass and valenz
   ENMAX  =  223.057; ENMIN  =  167.293 eV

 Optimization of the real space projectors (new method)

 maximal supplied QI-value         = 34.20
 optimisation between [QCUT,QGAM] = [ 11.29, 22.57] = [ 35.68,142.71] Ry
 Optimized for a Real-space Cutoff    1.16 Angstroem

   l    n(q)    QCUT    max X(q) W(low)/X(q) W(high)/X(q)  e(spline)
   0      8    11.287    19.460    0.40E-03    0.73E-03    0.16E-06
   0      8    11.287    12.209    0.38E-03    0.70E-03    0.15E-06
   1      7    11.287     4.655    0.22E-03    0.25E-04    0.22E-06
 Optimization of the real space projectors (new method)

[...]

   l    n(q)    QCUT    max X(q) W(low)/X(q) W(high)/X(q)  e(spline)
   0      8    11.310   159.560    0.27E-03    0.30E-03    0.39E-07
   0      8    11.310   115.863    0.27E-03    0.30E-03    0.38E-07
   1      7    11.310    88.339    0.28E-03    0.28E-03    0.77E-07
   1      7    11.310    48.592    0.27E-03    0.27E-03    0.74E-07
 Optimization of the real space projectors (new method)

 maximal supplied QI-value         = 13.61
 optimisation between [QCUT,QGAM] = [ 11.43, 22.86] = [ 36.58,146.31] Ry
 Optimized for a Real-space Cutoff    1.56 Angstroem

   l    n(q)    QCUT    max X(q) W(low)/X(q) W(high)/X(q)  e(spline)
   2     10    11.429   130.855    0.22E-03    0.64E-03    0.11E-05
   2     10    11.429   114.007    0.22E-03    0.64E-03    0.11E-05
   0     11    11.429    84.709    0.39E-04    0.67E-04    0.23E-06
   0     11    11.429    49.163    0.35E-04    0.62E-04    0.21E-06
   1     10    11.429    15.765    0.84E-04    0.15E-03    0.24E-06
   1     10    11.429    10.638    0.58E-04    0.12E-03    0.19E-06

  PAW_PBE H 15Jun2001                   :
  PAW_PBE O 08Apr2002                   :
  PAW_PBE Si 05Jan2001                  :
  PAW_PBE W 08Apr2002                   :

 POSCAR:  H  O Si  W
  positions in cartesian coordinates
 exchange correlation table for  LEXCH =        9
   RHO(1)=    0.500       N(1)  =     2000
   RHO(2)=  100.500       N(2)  =     4000

 ion  position               nearest neighbor table
   1  0.762  0.104  0.652- 119 0.97
   2  0.926  0.279  0.356-  67 0.98
   3  0.793  0.207  0.373- 102 0.97
   4  0.975  0.944  0.325- 111 0.97
   5  0.626  0.963  0.375- 113 0.98
   6  0.821  0.995  0.369- 131 0.97
   7  0.750  0.141  0.458- 169 0.98
   8  0.915  0.249  0.510- 174 0.97
   9  0.583  0.304  0.306- 179 0.97
  10  0.891  0.335  0.617-  85 0.98
  11  0.587  0.356  0.616- 130 0.97
  12  0.594  0.871  0.578- 172 0.99
  13  0.033  0.337  0.653- 178 0.97
  14  0.935  0.420  0.454- 167 0.98
  15  0.746  0.530  0.422-  81 1.00
  16  0.797  0.381  0.634- 159 0.97
  17  0.591  0.569  0.378-  93 0.99
  18  0.718  0.646  0.383- 116 0.99
  19  0.841  0.542  0.420- 122 0.98
  20  0.005  0.604  0.358- 127 0.97
  21  0.828  0.712  0.468- 168 0.99
  22  0.876  0.600  0.722-  47 0.97
  23  0.520  0.986  0.422- 129 0.99
  24  0.223  0.980  0.393- 170 1.00
  25  0.216  0.238  0.319- 185 0.99
  26  0.158  0.330  0.279- 176 0.97
  27  0.342  0.156  0.331- 177 0.98
  28  0.223  0.046  0.323- 184 0.97
  29  0.512  0.825  0.547- 187 0.97
  30  0.380  0.243  0.647-  72 0.97
  31  0.244  0.093  0.598- 123 0.98
  32  0.315  0.487  0.442-  46 0.99
  33  0.409  0.439  0.406- 135 0.98
  34  0.398  0.793  0.389- 173 0.97
  35  0.244  0.655  0.294- 181 0.97
  36  0.312  0.418  0.369- 182 0.98
  37  0.405  0.584  0.339- 183 0.97
  38  0.139  0.488  0.352- 175 0.98
  39  0.593  0.698  0.352-  76 0.97
  40  0.469  0.861  0.444- 186 0.99
  41  0.121  0.323  0.612-  95 0.97
  42  0.068  0.668  0.644- 126 0.97
  43  0.239  0.388  0.683- 171 0.97
  44  0.248  0.814  0.670- 180 0.97
  45  0.369  0.648  0.439- 218 1.66 253 1.68
  46  0.347  0.504  0.420-  32 0.99 253 1.67
  47  0.861  0.567  0.697-  22 0.97 224 1.64
  48  0.349  0.957  0.530- 229 1.68 262 1.70
  49  0.034  0.932  0.529- 244 1.63 255 1.66
  50  0.636  0.079  0.489- 222 1.60 211 1.65
  51  0.069  0.052  0.395- 210 1.64 202 1.65
  52  0.452  0.130  0.421- 227 1.65 208 1.65
  53  0.806  0.214  0.483- 226 1.67 223 1.69
  54  0.973  0.181  0.599- 204 1.63 234 1.65
  55  0.275  0.299  0.449- 250 1.65 260 1.66
  56  0.556  0.775  0.442- 231 1.51 258 1.66
  57  0.393  0.971  0.619- 248 1.65 262 1.66
  58  0.178  0.350  0.405- 250 1.66 225 1.67
  59  0.867  0.684  0.637- 228 1.64 224 1.65
  60  0.866  0.967  0.467- 220 1.60 235 1.65
[...]
 206  0.214  0.476  0.510- 166 1.61 165 1.63 162 1.66 125 1.66 217 3.10 250 3.14
 207  0.915  0.756  0.496-  90 1.65 168 1.65  74 1.65  79 1.66 220 2.99 228 3.03
 208  0.521  0.110  0.426- 101 1.64  52 1.65 129 1.66 109 1.67 239 3.08 222 3.12
 209  0.419  0.168  0.589-  72 1.64 189 1.65  89 1.68 149 1.69 262 3.14 249 3.14
 210  0.083  0.139  0.407-  51 1.64 132 1.65  77 1.65 145 1.66 203 3.11 202 3.13 256 3.14
 211  0.702  0.045  0.487-  84 1.64 153 1.65  50 1.65 169 1.66 222 3.09 212 3.10
 212  0.665  0.898  0.437-  83 1.53 153 1.66 113 1.66 144 1.67 258 2.83 245 3.06 211 3.10
 213  0.650  0.504  0.430-  93 1.65 151 1.65  81 1.67  87 1.68 221 3.08
 214  0.198  0.912  0.464- 124 1.50 170 1.64 147 1.66 103 1.67 232 3.01 229 3.06 255 3.07
 215  0.214  0.366  0.604-  71 1.63 166 1.64  95 1.64 171 1.65
 216  0.675  0.815  0.595- 172 1.62 104 1.64  86 1.67 194 1.70 243 2.90
 217  0.217  0.641  0.538- 157 1.63 164 1.63 190 1.65 125 1.65 232 3.09 206 3.10 261 3.12
 218  0.369  0.735  0.459-  61 1.65  92 1.65  45 1.66 173 1.68
 219  0.798  0.889  0.596- 128 1.66  86 1.66  97 1.66 193 1.68 228 2.86 220 2.99 246 3.14
 220  0.880  0.912  0.512-  60 1.60  79 1.62  97 1.65 105 1.65 219 2.99 207 2.99 244 3.06 235 3.13

 221  0.577  0.576  0.512-  87 1.59 154 1.62  88 1.63 121 1.66 231 3.00 213 3.08
 222  0.590  0.115  0.525-  50 1.60 109 1.61 146 1.62 136 1.65 249 2.85 211 3.09 233 3.11 208 3.12

[...]

 260  0.287  0.210  0.459- 161 1.63 110 1.63  55 1.66 140 1.67 238 3.02 256 3.12
 261  0.088  0.626  0.568- 150 1.63 126 1.63  96 1.64 157 1.65 257 3.10 217 3.12 237 3.14
 262  0.354  0.018  0.578- 149 1.63  57 1.66 196 1.69  48 1.70 229 2.38 248 2.75 209 3.14
 263  0.490  0.475  0.573- 121 1.63 115 1.66  65 1.68  73 1.69 264 2.95
 264  0.485  0.501  0.681- 198 1.71 112 1.92  65 1.93  73 2.60 240 2.80 263 2.95

  LATTYP: Found a simple orthorhombic cell.
 ALAT       =    18.1212369514
 B/A-ratio  =     1.2919258579
 C/A-ratio  =     1.4835282260

  Lattice vectors:

 A1 = (   0.0000000000, -18.1212369514,   0.0000000000)
 A2 = ( -23.4112945954,   0.0000000000,   0.0000000000)
 A3 = (   0.0000000000,   0.0000000000, -26.8833665073)

Analysis of symmetry for initial positions (statically):
 Subroutine PRICEL returns:
 Original cell was already a primitive cell.

 Routine SETGRP: Setting up the symmetry group for a
 simple orthorhombic supercell.

 Subroutine GETGRP returns: Found  1 space group operations
 (whereof  1 operations were pure point group operations)
 out of a pool of  8 trial point group operations.

The static configuration has the point symmetry C_1 .

Analysis of symmetry for dynamics (positions and initial velocities):
 Subroutine PRICEL returns:
 Original cell was already a primitive cell.

[...]

The dynamic configuration has the point symmetry C_1 .

Analysis of constrained symmetry for selective dynamics:
 Subroutine PRICEL returns:
 Original cell was already a primitive cell.

[...]

The constrained configuration has the point symmetry C_1 .

 Subroutine INISYM returns: Found  1 space group operations
 (whereof  1 operations are pure point group operations),
 and found     1 'primitive' translations

 KPOINTS: KPOINTS created by Atomic Simulation Env

Automatic generation of k-mesh.
Space group operators:
 irot       det(A)        alpha          n_x          n_y          n_z        tau_x        tau_y        tau_z
    1     1.000000     0.000001     1.000000     0.000000     0.000000     0.000000     0.000000     0.000000

 Subroutine IBZKPT returns following result:

 Found      5 irreducible k-points:

 Following reciprocal coordinates:
            Coordinates               Weight
  0.000000  0.000000  0.000000      1.000000
  0.333333  0.000000  0.000000      2.000000
  0.000000  0.333333  0.000000      2.000000
  0.333333  0.333333  0.000000      2.000000
 -0.333333  0.333333  0.000000      2.000000

 Following cartesian coordinates:
            Coordinates               Weight
  0.000000  0.000000  0.000000      1.000000
  0.014238  0.000000  0.000000      2.000000
  0.000000  0.018395  0.000000      2.000000
  0.014238  0.018395  0.000000      2.000000
 -0.014238  0.018395  0.000000      2.000000

 Subroutine IBZKPT_HF returns following result:

 Found      9 k-points in 1st BZ
 the following      9 k-points will be used (e.g. in the exchange kernel)
 Following reciprocal coordinates:   # in IRBZ
  0.000000  0.000000  0.000000    0.11111111   1 t-inv F
  0.333333  0.000000  0.000000    0.11111111   2 t-inv F
  0.000000  0.333333  0.000000    0.11111111   3 t-inv F
  0.333333  0.333333  0.000000    0.11111111   4 t-inv F
 -0.333333  0.333333  0.000000    0.11111111   5 t-inv F
 -0.333333  0.000000  0.000000    0.11111111   2 t-inv T
  0.000000 -0.333333  0.000000    0.11111111   3 t-inv T
 -0.333333 -0.333333  0.000000    0.11111111   4 t-inv T
  0.333333 -0.333333  0.000000    0.11111111   5 t-inv T

 SYSTEM =  unknown system
 POSCAR =   H  O Si  W

 Startparameter for this run:
   NWRITE =      2    write-flag & timer
   PREC   = normal    normal or accurate (medium, high low for compatibility)
   ISTART =      0    job   : 0-new  1-cont  2-samecut
   ICHARG =      2    charge: 1-file 2-atom 10-const
   ISPIN  =      1    spin polarized calculation?
   LNONCOLLINEAR =      F non collinear calculations
   LSORBIT =      F    spin-orbit coupling
   INIWAV =      1    electr: 0-lowe 1-rand  2-diag
   LASPH  =      T    aspherical Exc in radial PAW
   METAGGA=      F    non-selfconsistent MetaGGA calc.

 Electronic Relaxation 1
   ENCUT  =  500.0 eV  36.75 Ry    6.06 a.u.  42.68 33.04 49.01*2*pi/ulx,y,z
   ENINI  =  500.0     initial cutoff
   ENAUG  =  605.4 eV  augmentation charge cutoff
   NELM   =     60;   NELMIN=  2; NELMDL= -5     # of ELM steps
   EDIFF  = 0.1E-05   stopping-criterion for ELM
[...]
     10.57955      2.34783     11.30707         0.052915      0.078581     -0.125849
     18.86679      3.87161     12.98914         0.520565     -0.026539     -0.217277
     22.78803      3.28537     16.09826        -0.009763     -0.000135      0.001812
      6.43261      5.42138     12.05752        -0.285631      0.116450     -0.147801
     13.02497     14.04561     11.87575        -2.619270      3.430378      0.158797
      9.19124     17.59151     16.65183        -0.001846      0.018600     -0.000186
      4.15591      6.34186     10.89511         0.174817      0.268615     -0.095035
     20.29452     12.39831     17.12902         0.004362      0.013795     -0.001413
     20.26706     17.52644     12.55557        -0.058915      1.300322     -1.005398
[...]
      5.71814      6.71222     11.31648         0.002520     -0.129122     -0.102077
     15.41693      5.98005     12.10687        -0.115851     -0.517028     -0.814004
     10.78725      5.73076     14.20729        -0.002958     -0.012384     -0.001226
      7.89661     10.69049     10.72869        -0.165605     -0.082090     -0.085736
     18.80961      8.63450     15.58786         0.002312     -0.004390      0.016622
      1.62029     16.28844     12.91761        -0.330404      6.412084     -0.524074
      4.96103      2.61769     10.04353        -0.086518     -0.038160      0.063763
      1.83153      8.95162     13.29887         0.017830     -0.148213     -0.303846
     13.05344     15.44546     12.76235       -22.256250    -15.829360      4.739009
     16.82489     10.59985     16.38849        -0.006390      0.012464      0.009214
      6.71066      3.80730     12.34244        -0.243719      0.005199     -0.756690
      2.06123     11.33608     15.25905         0.008094     -0.009850      0.003501
      8.28556      0.31883     15.55097         0.004777      0.003347      0.000697
     11.46361      8.61065     15.40690        -0.004630     -0.002206     -0.096177
     11.34713      9.07739     18.30099         0.070267     -0.135583      0.905195
    total drift:                                0.343007      0.164825      0.122387

  FREE ENERGIE OF THE ION-ELECTRON SYSTEM (eV)
  free  energy   TOTEN  =     -1820.69297619 eV

  energy  without entropy=    -1820.69296729  energy(sigma->0) =    -1820.69297174

 d Force = 0.1369823E-02[-0.272E-01, 0.299E-01]  d Energy = 0.1014057E-02 0.356E-03
 d Force =-0.2497773E+02[-0.251E+02,-0.249E+02]  d Ewald  =-0.2497814E+02 0.408E-03

 Finite differences progress:
  Degree of freedom:   6/  6
  Displacement:        2/  2
  Total:              12/ 12

 SECOND DERIVATIVES (NOT SYMMETRIZED)
             198X        198Y        198Z        264X        264Y        264Z
198X    -4.886941    6.550830  -11.445932    5.021065   -5.438705   11.240578
198Y     6.752029   -9.859907   15.803809   -6.034559   10.146044  -15.225546
198Z   -12.120208   16.474005  -46.125026   11.828401  -14.885960   44.580286
264X     5.014804   -6.029452   11.815618  -13.905657   15.494749   -5.368673
264Y    -5.434881   10.137421  -14.868950   15.443914  -41.178585    8.745296
264Z    11.261462  -15.251164   44.572771   -5.131330    8.475278  -63.390414

 Eigenvectors and eigenvalues of the dynamical matrix

   1 f  =   30.370028 THz   190.820515 2PiTHz 1013.035065 cm-1   125.600386 meV
             X         Y         Z           dx          dy          dz
     17.836992  1.877632 17.516017            0           0           0
     21.688871  5.049826  9.579483            0           0           0
     18.573109  3.756150 10.039768            0           0           0
     22.815222 17.099355  8.745234            0           0           0
     14.649212 17.459320 10.087478            0           0           0
     19.209866 18.030752  9.919764            0           0           0
     17.558309  2.558334 12.313609            0           0           0
     21.430001  4.520008 13.701785            0           0           0
     13.660323  5.513632  8.224352            0           0           0
     20.870944  6.063326 16.577147            0           0           0
     13.740127  6.457765 16.571128            0           0           0
     13.912007 15.789804 15.535619            0           0           0
      0.781968  6.111092 17.549089            0           0           0
     21.895893  7.602117 12.207776            0           0           0
     17.468065  9.609909 11.357905            0           0           0
     18.658603  6.906718 17.043269            0           0           0
     13.838463 10.305236 10.162847            0           0           0
     16.819465 11.705101 10.308712            0           0           0
     19.692479  9.829441 11.280158            0           0           0
      0.111544 10.941569  9.618285            0           0           0
     19.392950 12.908784 12.579863            0           0           0
     20.500626 10.866136 19.415518            0           0           0
     12.173646 17.859653 11.336798            0           0           0
      5.222933 17.761618 10.570675            0           0           0
      5.065588  4.310163  8.581986            0           0           0
      3.687303  5.976497  7.500000            0           0           0
      7.996055  2.819405  8.892285            0           0           0
      5.214067  0.829208  8.676296            0           0           0
     11.982862 14.948107 14.704161            0           0           0
      8.899013  4.399542 17.402440            0           0           0
      5.706775  1.683723 16.085009            0           0           0
      7.383477  8.827515 11.894133            0           0           0
      9.574194  7.950418 10.906329            0           0           0
      9.329389 14.372200 10.451898            0           0           0
      5.717093 11.877204  7.912497            0           0           0
      7.298269  7.583298  9.926889            0           0           0
      9.492678 10.587870  9.108619            0           0           0
      3.262542  8.842686  9.461049            0           0           0
     13.889203 12.648390  9.473644            0           0           0
     10.980057 15.610131 11.931601            0           0           0
      2.842128  5.856206 16.446322            0           0           0
      1.599727 12.108243 17.321480            0           0           0
      5.600337  7.036715 18.358873            0           0           0
      5.806524 14.750988 18.021863            0           0           0
      8.637404 11.748996 11.801798            0           0           0
      8.119403  9.133717 11.301448            0           0           0
     20.160214 10.268594 18.733192            0           0           0
      8.170469 17.350642 14.257173            0           0           0
      0.784877 16.891718 14.213144            0           0           0
     14.897906  1.429196 13.156092            0           0           0
      1.607095  0.947114 10.621907            0           0           0
     10.579553  2.347830 11.307071            0           0           0
     18.866791  3.871606 12.989145            0           0           0
     22.788030  3.285369 16.098259            0           0           0
      6.432611  5.421382 12.057519            0           0           0
     13.024971 14.045613 11.875754            0           0           0
      9.191236 17.591514 16.651835            0           0           0
      4.155908  6.341861 10.895106            0           0           0
     20.294517 12.398313 17.129017            0           0           0
     20.267064 17.526442 12.555566            0           0           0
[...]
      5.718142  6.712221 11.316475            0           0           0
     15.416931  5.980046 12.106868            0           0           0
     10.787254  5.730759 14.207294            0           0           0
      7.896615 10.690489 10.728695            0           0           0
     18.809607  8.634499 15.587862            0           0           0
      1.620291 16.288440 12.917606            0           0           0
      4.961031  2.617691 10.043534            0           0           0
      1.831532  8.951619 13.298869            0           0           0
     13.053440 15.445457 12.762347            0           0           0
     16.824891 10.599854 16.388485            0           0           0
      6.710663  3.807303 12.342443            0           0           0
      2.061229 11.336083 15.259053            0           0           0
      8.285564  0.318829 15.550971            0           0           0
     11.463607  8.610647 15.406904            0           0           0
     11.347130  9.077392 18.315985    -0.071406    0.096579   -0.251711

[...]

   6 f  =    0.624262 THz     3.922356 2PiTHz   20.823147 cm-1     2.581742 meV
             X         Y         Z           dx          dy          dz
     17.836992  1.877632 17.516017            0           0           0
     21.688871  5.049826  9.579483            0           0           0
     18.573109  3.756150 10.039768            0           0           0
     22.815222 17.099355  8.745234            0           0           0
     14.649212 17.459320 10.087478            0           0           0
     19.209866 18.030752  9.919764            0           0           0
     17.558309  2.558334 12.313609            0           0           0
     21.430001  4.520008 13.701785            0           0           0
     13.660323  5.513632  8.224352            0           0           0
     20.870944  6.063326 16.577147            0           0           0
     13.740127  6.457765 16.571128            0           0           0
     13.912007 15.789804 15.535619            0           0           0
      0.781968  6.111092 17.549089            0           0           0
     21.895893  7.602117 12.207776            0           0           0
     17.468065  9.609909 11.357905            0           0           0
     18.658603  6.906718 17.043269            0           0           0
     13.838463 10.305236 10.162847            0           0           0
     16.819465 11.705101 10.308712            0           0           0
     19.692479  9.829441 11.280158            0           0           0
      0.111544 10.941569  9.618285            0           0           0
     19.392950 12.908784 12.579863            0           0           0
     20.500626 10.866136 19.415518            0           0           0
     12.173646 17.859653 11.336798            0           0           0
      5.222933 17.761618 10.570675            0           0           0
      5.065588  4.310163  8.581986            0           0           0
      3.687303  5.976497  7.500000            0           0           0
      7.996055  2.819405  8.892285            0           0           0
      5.214067  0.829208  8.676296            0           0           0
     11.982862 14.948107 14.704161            0           0           0
      8.899013  4.399542 17.402440            0           0           0
      5.706775  1.683723 16.085009            0           0           0
      7.383477  8.827515 11.894133            0           0           0
      9.574194  7.950418 10.906329            0           0           0
      9.329389 14.372200 10.451898            0           0           0
      5.717093 11.877204  7.912497            0           0           0
      7.298269  7.583298  9.926889            0           0           0
      9.492678 10.587870  9.108619            0           0           0
      3.262542  8.842686  9.461049            0           0           0
     13.889203 12.648390  9.473644            0           0           0
     10.980057 15.610131 11.931601            0           0           0
      2.842128  5.856206 16.446322            0           0           0
      1.599727 12.108243 17.321480            0           0           0
      5.600337  7.036715 18.358873            0           0           0
      5.806524 14.750988 18.021863            0           0           0
      8.637404 11.748996 11.801798            0           0           0
      8.119403  9.133717 11.301448            0           0           0
     20.160214 10.268594 18.733192            0           0           0
      8.170469 17.350642 14.257173            0           0           0
      0.784877 16.891718 14.213144            0           0           0
     14.897906  1.429196 13.156092            0           0           0
      1.607095  0.947114 10.621907            0           0           0
     10.579553  2.347830 11.307071            0           0           0
     18.866791  3.871606 12.989145            0           0           0
     22.788030  3.285369 16.098259            0           0           0
      6.432611  5.421382 12.057519            0           0           0
     13.024971 14.045613 11.875754            0           0           0
      9.191236 17.591514 16.651835            0           0           0
      4.155908  6.341861 10.895106            0           0           0
     20.294517 12.398313 17.129017            0           0           0
     20.267064 17.526442 12.555566            0           0           0
[...]
      5.718142  6.712221 11.316475            0           0           0
     15.416931  5.980046 12.106868            0           0           0
     10.787254  5.730759 14.207294            0           0           0
      7.896615 10.690489 10.728695            0           0           0
     18.809607  8.634499 15.587862            0           0           0
      1.620291 16.288440 12.917606            0           0           0
      4.961031  2.617691 10.043534            0           0           0
      1.831532  8.951619 13.298869            0           0           0
     13.053440 15.445457 12.762347            0           0           0
     16.824891 10.599854 16.388485            0           0           0
      6.710663  3.807303 12.342443            0           0           0
      2.061229 11.336083 15.259053            0           0           0
      8.285564  0.318829 15.550971            0           0           0
     11.463607  8.610647 15.406904            0           0           0
     11.347130  9.077392 18.315985    -0.502767   -0.244414   -0.095428

 Finite differences POTIM=  1.500000000000000E-002
  LATTYP: Found a simple orthorhombic cell.
 ALAT       =    18.1212369514
 B/A-ratio  =     1.2919258579
 C/A-ratio  =     1.4835282260

  Lattice vectors:

 A1 = (   0.0000000000, -18.1212369514,   0.0000000000)
 A2 = ( -23.4112945954,   0.0000000000,   0.0000000000)
 A3 = (   0.0000000000,   0.0000000000, -26.8833665073)

Analysis of symmetry for initial positions (statically):
 Subroutine PRICEL returns:
 Original cell was already a primitive cell.

[...]

The static configuration has the point symmetry C_1 .

Analysis of symmetry for dynamics (positions and initial velocities):
 Subroutine PRICEL returns:
 Original cell was already a primitive cell.

[...]

The dynamic configuration has the point symmetry C_1 .

Analysis of constrained symmetry for selective dynamics:
 Subroutine PRICEL returns:
 Original cell was already a primitive cell.

 Routine SETGRP: Setting up the symmetry group for a
 simple orthorhombic supercell.

 Subroutine GETGRP returns: Found  1 space group operations
 (whereof  1 operations were pure point group operations)
 out of a pool of  8 trial point group operations.

The constrained configuration has the point symmetry C_1 .

 Subroutine INISYM returns: Found  1 space group operations
 (whereof  1 operations are pure point group operations),
 and found     1 'primitive' translations

 KPOINTS: KPOINTS created by Atomic Simulation Env

Automatic generation of k-mesh.
Space group operators:
 irot       det(A)        alpha          n_x          n_y          n_z        tau_x        tau_y        tau_z
    1     1.000000     0.000001     1.000000     0.000000     0.000000     0.000000     0.000000     0.000000

 Subroutine IBZKPT returns following result:

 Found      5 irreducible k-points:

 Following reciprocal coordinates:
            Coordinates               Weight
  0.000000  0.000000  0.000000      1.000000
  0.333333  0.000000  0.000000      2.000000
  0.000000  0.333333  0.000000      2.000000
  0.333333  0.333333  0.000000      2.000000
 -0.333333  0.333333  0.000000      2.000000

 Following cartesian coordinates:
            Coordinates               Weight
  0.000000  0.000000  0.000000      1.000000
  0.014238  0.000000  0.000000      2.000000
  0.000000  0.018395  0.000000      2.000000
  0.014238  0.018395  0.000000      2.000000
 -0.014238  0.018395  0.000000      2.000000

 writing wavefunctions