 vasp.5.4.4.18Apr17-6-g9f103f2a35 (build May 20 2022 18:47:50) complex
 executed on             LinuxPGI date 2022.08.31  14:55:10

 INCAR:
 POTCAR:    PAW_PBE C 08Apr2002
 POTCAR:    PAW_PBE H 15Jun2001
 POTCAR:    PAW_PBE O 08Apr2002
 POTCAR:    PAW_PBE Si 05Jan2001
 POTCAR:    PAW_PBE W 08Apr2002

 POTCAR:    PAW_PBE C 08Apr2002
   VRHFIN =C: s2p2

   TITEL  = PAW_PBE C 08Apr2002
   POMASS =   12.011; ZVAL   =    4.000    mass and valenz
   ENMAX  =  400.000; ENMIN  =  300.000 eV

 POTCAR:    PAW_PBE H 15Jun2001
   VRHFIN =H: ultrasoft test

   TITEL  = PAW_PBE H 15Jun2001
   POMASS =    1.000; ZVAL   =    1.000    mass and valenz
   ENMAX  =  250.000; ENMIN  =  200.000 eV

 POTCAR:    PAW_PBE O 08Apr2002
   VRHFIN =O: s2p4

[...]

 POTCAR:    PAW_PBE Si 05Jan2001
   VRHFIN =Si: s2p2

   TITEL  = PAW_PBE Si 05Jan2001
   POMASS =   28.085; ZVAL   =    4.000    mass and valenz
   ENMAX  =  245.345; ENMIN  =  184.009 eV

 POTCAR:    PAW_PBE W 08Apr2002
   VRHFIN =W : 6s5d

   TITEL  = PAW_PBE W 08Apr2002
   POMASS =  183.850; ZVAL   =    6.000    mass and valenz
   ENMAX  =  223.057; ENMIN  =  167.293 eV

 Optimization of the real space projectors (new method)

 maximal supplied QI-value         = 25.13
 optimisation between [QCUT,QGAM] = [ 11.31, 22.87] = [ 35.82,146.48] Ry
 Optimized for a Real-space Cutoff    1.00 Angstroem

   l    n(q)    QCUT    max X(q) W(low)/X(q) W(high)/X(q)  e(spline)
   0      7    11.310   115.676    0.43E-03    0.13E-02    0.19E-06
   0      7    11.310    87.132    0.43E-03    0.13E-02    0.18E-06
   1      6    11.310     4.429    0.42E-03    0.74E-03    0.11E-06
   1      6    11.310     2.733    0.34E-03    0.55E-03    0.92E-07
 Optimization of the real space projectors (new method)

[...]

   l    n(q)    QCUT    max X(q) W(low)/X(q) W(high)/X(q)  e(spline)
   0      8    11.310   159.560    0.27E-03    0.30E-03    0.39E-07
   0      8    11.310   115.863    0.27E-03    0.30E-03    0.38E-07
   1      7    11.310    88.339    0.28E-03    0.28E-03    0.77E-07
   1      7    11.310    48.592    0.27E-03    0.27E-03    0.74E-07
 Optimization of the real space projectors (new method)

 maximal supplied QI-value         = 13.61
 optimisation between [QCUT,QGAM] = [ 11.43, 22.86] = [ 36.58,146.31] Ry
 Optimized for a Real-space Cutoff    1.56 Angstroem

   l    n(q)    QCUT    max X(q) W(low)/X(q) W(high)/X(q)  e(spline)
   2     10    11.429   130.855    0.22E-03    0.64E-03    0.11E-05
   2     10    11.429   114.007    0.22E-03    0.64E-03    0.11E-05
   0     11    11.429    84.709    0.39E-04    0.67E-04    0.23E-06
   0     11    11.429    49.163    0.35E-04    0.62E-04    0.21E-06
   1     10    11.429    15.765    0.84E-04    0.15E-03    0.24E-06
   1     10    11.429    10.638    0.58E-04    0.12E-03    0.19E-06

  PAW_PBE C 08Apr2002                   :
  PAW_PBE H 15Jun2001                   :
  PAW_PBE O 08Apr2002                   :
  PAW_PBE Si 05Jan2001                  :
  PAW_PBE W 08Apr2002                   :

 POSCAR:  C  H  O Si  W
  positions in direct lattice
  velocities in cartesian coordinates
 exchange correlation table for  LEXCH =        9
   RHO(1)=    0.500       N(1)  =     2000
   RHO(2)=  100.500       N(2)  =     4000

 ion  position               nearest neighbor table
   1  0.567  0.501  0.723-  48 1.11   2 1.51 270 1.90
   2  0.599  0.458  0.762-  49 1.10  47 1.10  50 1.11   1 1.51
   3  0.761  0.104  0.651- 125 0.97
   4  0.926  0.279  0.356-  73 0.98
   5  0.793  0.207  0.373- 108 0.97
   6  0.975  0.944  0.325- 117 0.97
   7  0.626  0.963  0.375- 119 0.98
   8  0.821  0.995  0.369- 137 0.97
   9  0.750  0.141  0.458- 175 0.98
  10  0.915  0.249  0.509- 180 0.97
  11  0.583  0.304  0.306- 185 0.97
  12  0.891  0.335  0.616-  91 0.98
  13  0.587  0.359  0.615- 136 0.97
  14  0.593  0.871  0.578- 178 0.99
  15  0.034  0.338  0.652- 184 0.97
  16  0.935  0.420  0.454- 173 0.98
  17  0.746  0.530  0.422-  87 1.00
  18  0.798  0.382  0.635- 165 0.97
  19  0.591  0.569  0.378-  99 0.99
  20  0.718  0.646  0.383- 122 0.99
  21  0.841  0.542  0.420- 128 0.98
  22  0.005  0.604  0.358- 133 0.97
  23  0.828  0.712  0.468- 174 0.99
  24  0.876  0.599  0.722-  53 0.97
  25  0.520  0.986  0.422- 135 0.99
  26  0.223  0.980  0.393- 176 1.00
  27  0.216  0.238  0.319- 191 0.99
  28  0.158  0.330  0.279- 182 0.97
  29  0.342  0.156  0.331- 183 0.98
  30  0.223  0.046  0.323- 190 0.97
  31  0.511  0.826  0.547- 193 0.97
  32  0.377  0.242  0.648-  78 0.97
  33  0.244  0.094  0.599- 129 0.98
  34  0.315  0.487  0.442-  52 0.99
  35  0.409  0.439  0.406- 141 0.98
  36  0.398  0.793  0.389- 179 0.97
  37  0.244  0.655  0.294- 187 0.97
  38  0.312  0.418  0.369- 188 0.98
  39  0.405  0.584  0.339- 189 0.97
  40  0.139  0.488  0.352- 181 0.98
  41  0.593  0.698  0.352-  82 0.97
  42  0.469  0.861  0.444- 192 0.99
  43  0.122  0.325  0.612- 101 0.97
  44  0.072  0.666  0.645- 132 0.97
  45  0.242  0.386  0.683- 177 0.97
  46  0.246  0.815  0.670- 186 0.97
  47  0.608  0.493  0.795-   2 1.10
  48  0.592  0.546  0.705-   1 1.11
  49  0.574  0.410  0.774-   2 1.10
  50  0.640  0.439  0.747-   2 1.11
  51  0.369  0.648  0.439- 224 1.66 259 1.68
  52  0.347  0.504  0.420-  34 0.99 259 1.67
  53  0.861  0.566  0.697-  24 0.97 230 1.64
  54  0.348  0.959  0.531- 235 1.68 268 1.69
  55  0.033  0.933  0.529- 250 1.63 261 1.66
  56  0.636  0.079  0.489- 228 1.60 217 1.65
  57  0.069  0.052  0.395- 216 1.64 208 1.65
  58  0.452  0.130  0.421- 233 1.65 214 1.65
  59  0.806  0.214  0.483- 232 1.67 229 1.69
  60  0.973  0.182  0.599- 210 1.63 240 1.65
[...]
 212  0.214  0.476  0.510- 172 1.61 171 1.63 168 1.66 131 1.66 223 3.10 256 3.14
 213  0.915  0.756  0.496-  96 1.65 174 1.65  80 1.66  85 1.66 226 2.99 234 3.03
 214  0.521  0.110  0.426- 107 1.64  58 1.65 135 1.66 115 1.67 245 3.08 228 3.12
 215  0.418  0.170  0.589-  78 1.64 195 1.65  95 1.68 155 1.69 268 3.13 255 3.14
 216  0.083  0.139  0.407-  57 1.64 138 1.65  83 1.65 151 1.66 209 3.11 208 3.13 262 3.14
 217  0.702  0.045  0.487-  90 1.64 159 1.65  56 1.65 175 1.66 228 3.09 218 3.10 252 3.15
 218  0.665  0.898  0.437-  89 1.53 159 1.66 119 1.66 150 1.67 264 2.83 251 3.06 217 3.10
 219  0.650  0.504  0.430-  99 1.65 157 1.65  87 1.67  93 1.68 227 3.07
 220  0.198  0.912  0.464- 130 1.50 176 1.64 153 1.66 109 1.67 238 3.01 235 3.06 261 3.07
 221  0.214  0.367  0.603-  77 1.63 172 1.63 101 1.64 177 1.65
 222  0.674  0.814  0.594- 178 1.62 110 1.64  92 1.68 200 1.71 249 2.90
 223  0.217  0.642  0.539- 170 1.63 163 1.63 196 1.65 131 1.65 238 3.09 212 3.10 267 3.12
 224  0.369  0.735  0.459-  67 1.65  98 1.66  51 1.66 179 1.68
 225  0.798  0.889  0.596- 134 1.66  92 1.66 103 1.67 199 1.68 234 2.86 226 2.99 252 3.15
 226  0.880  0.912  0.512-  66 1.60  85 1.62 103 1.65 111 1.65 213 2.99 225 2.99 250 3.05 241 3.13

 227  0.576  0.574  0.512-  93 1.58 160 1.62  94 1.63 127 1.65 237 3.00 219 3.07 269 3.14
 228  0.590  0.116  0.525-  56 1.60 115 1.61 152 1.62 142 1.65 255 2.86 217 3.09 239 3.12 214 3.12

[...]

 266  0.287  0.210  0.459- 167 1.63 116 1.63  61 1.66 146 1.67 244 3.02 262 3.12
 267  0.088  0.625  0.568- 156 1.63 132 1.63 102 1.64 163 1.65 263 3.09 223 3.12 243 3.15
 268  0.353  0.020  0.578- 155 1.63  63 1.66  54 1.69 202 1.70 235 2.38 254 2.75 215 3.13
 269  0.487  0.479  0.572- 127 1.64  71 1.66 121 1.67  79 1.68 246 3.02 227 3.14 270 3.23
 270  0.495  0.493  0.691- 204 1.72   1 1.90 118 1.96  71 1.96 246 3.05 269 3.23

  LATTYP: Found a simple orthorhombic cell.
 ALAT       =    18.1212369514
 B/A-ratio  =     1.2919258579
 C/A-ratio  =     1.4835282260

  Lattice vectors:

 A1 = (   0.0000000000, -18.1212369514,   0.0000000000)
 A2 = ( -23.4112945954,   0.0000000000,   0.0000000000)
 A3 = (   0.0000000000,   0.0000000000, -26.8833665073)

Analysis of symmetry for initial positions (statically):
 Subroutine PRICEL returns:
 Original cell was already a primitive cell.

 Routine SETGRP: Setting up the symmetry group for a
 simple orthorhombic supercell.

 Subroutine GETGRP returns: Found  1 space group operations
 (whereof  1 operations were pure point group operations)
 out of a pool of  8 trial point group operations.

The static configuration has the point symmetry C_1 .

Analysis of symmetry for dynamics (positions and initial velocities):
 Subroutine PRICEL returns:
 Original cell was already a primitive cell.

[...]

The dynamic configuration has the point symmetry C_1 .

Analysis of constrained symmetry for selective dynamics:
 Subroutine PRICEL returns:
 Original cell was already a primitive cell.

 Routine SETGRP: Setting up the symmetry group for a
 simple orthorhombic supercell.

 Subroutine GETGRP returns: Found  1 space group operations
 (whereof  1 operations were pure point group operations)
 out of a pool of  8 trial point group operations.

The constrained configuration has the point symmetry C_1 .

 Subroutine INISYM returns: Found  1 space group operations
 (whereof  1 operations are pure point group operations),
 and found     1 'primitive' translations

 KPOINTS: KPOINTS created by Atomic Simulation Env

Automatic generation of k-mesh.
Space group operators:
 irot       det(A)        alpha          n_x          n_y          n_z        tau_x        tau_y        tau_z
    1     1.000000     0.000000     1.000000     0.000000     0.000000     0.000000     0.000000     0.000000

 Subroutine IBZKPT returns following result:

 Found      5 irreducible k-points:

 Following reciprocal coordinates:
            Coordinates               Weight
  0.000000  0.000000  0.000000      1.000000
  0.333333  0.000000  0.000000      2.000000
  0.000000  0.333333  0.000000      2.000000
  0.333333  0.333333  0.000000      2.000000
 -0.333333  0.333333  0.000000      2.000000

 Following cartesian coordinates:
            Coordinates               Weight
  0.000000  0.000000  0.000000      1.000000
  0.014238  0.000000  0.000000      2.000000
  0.000000  0.018395  0.000000      2.000000
  0.014238  0.018395  0.000000      2.000000
 -0.014238  0.018395  0.000000      2.000000

 SYSTEM =  unknown system
 POSCAR =   C  H  O Si  W

 Startparameter for this run:
   NWRITE =      2    write-flag & timer
   PREC   = normal    normal or accurate (medium, high low for compatibility)
   ISTART =      1    job   : 0-new  1-cont  2-samecut
   ICHARG =      2    charge: 1-file 2-atom 10-const
   ISPIN  =      1    spin polarized calculation?
   LNONCOLLINEAR =      F non collinear calculations
   LSORBIT =      F    spin-orbit coupling
   INIWAV =      1    electr: 0-lowe 1-rand  2-diag
   LASPH  =      T    aspherical Exc in radial PAW
   METAGGA=      F    non-selfconsistent MetaGGA calc.

 Electronic Relaxation 1
   ENCUT  =  500.0 eV  36.75 Ry    6.06 a.u.  42.68 33.04 49.01*2*pi/ulx,y,z
   ENINI  =  500.0     initial cutoff
   ENAUG  =  644.9 eV  augmentation charge cutoff
   NELM   =     60;   NELMIN=  2; NELMDL=  0     # of ELM steps
   EDIFF  = 0.1E-03   stopping-criterion for ELM
   LREAL  =      T    real-space projection
   NLSPLINE    = F    spline interpolate recip. space projectors
   LCOMPAT=      F    compatible to vasp.4.4
   GGA_COMPAT  = T    GGA compatible to vasp.4.4-vasp.4.6
[...]
    electron-ion (+dipol)            ewald-force                    non-local-force                 convergence-correction
   -.451E+02 0.655E+01 -.557E+03   0.422E+02 -.836E+01 0.556E+03   0.297E+01 0.177E+01 0.820E+00   -.142E-02 -.615E-03 -.186E-02
   -.788E+02 0.795E+02 -.566E+03   0.791E+02 -.806E+02 0.567E+03   -.329E+00 0.110E+01 -.123E+01   -.117E-02 -.355E-03 -.120E-02
   0.395E+02 0.522E+01 -.217E+03   -.431E+02 -.771E+01 0.224E+03   0.358E+01 0.251E+01 -.718E+01   -.262E-03 0.877E-03 0.575E-03
   0.965E+02 0.274E+02 0.131E+03   -.104E+03 -.309E+02 -.130E+03   0.737E+01 0.362E+01 -.921E+00   -.375E-03 0.101E-03 -.666E-04
   0.278E+02 0.735E+02 0.168E+03   -.302E+02 -.809E+02 -.170E+03   0.240E+01 0.751E+01 0.249E+01   0.944E-04 0.465E-03 -.308E-04
   0.834E+02 0.519E+02 0.178E+03   -.906E+02 -.548E+02 -.181E+03   0.733E+01 0.292E+01 0.253E+01   -.740E-04 0.432E-04 -.712E-04
   0.484E+02 -.601E+02 0.163E+03   -.541E+02 0.658E+02 -.164E+03   0.572E+01 -.579E+01 0.116E+01   -.124E-03 -.282E-03 -.465E-03
   0.933E+02 0.257E+02 0.148E+03   -.101E+03 -.271E+02 -.148E+03   0.814E+01 0.144E+01 0.301E+00   0.346E-03 0.766E-04 -.338E-03
   -.613E+01 -.675E+02 0.381E+02   0.841E+01 0.745E+02 -.356E+02   -.236E+01 -.718E+01 -.261E+01   0.312E-03 0.882E-03 -.140E-03
   0.245E+02 -.876E+02 -.119E+02   -.246E+02 0.960E+02 0.121E+02   0.165E+00 -.840E+01 -.202E+00   -.501E-03 0.185E-03 -.172E-03
   -.372E+02 -.790E+02 0.194E+03   0.393E+02 0.860E+02 -.197E+03   -.220E+01 -.716E+01 0.348E+01   -.322E-04 0.236E-03 0.137E-03
   0.546E+02 -.445E+02 -.849E+02   -.602E+02 0.495E+02 0.815E+02   0.559E+01 -.501E+01 0.344E+01   -.341E-03 0.184E-03 0.169E-03
   0.123E+02 -.498E+02 -.141E+03   -.160E+02 0.567E+02 0.144E+03   0.367E+01 -.700E+01 -.257E+01   -.579E-03 0.296E-03 -.197E-03
   0.614E+02 -.118E+02 -.731E+02   -.683E+02 0.102E+02 0.698E+02   0.693E+01 0.157E+01 0.326E+01   -.738E-03 -.748E-03 0.378E-03
   -.216E+01 -.834E+02 -.192E+03   0.217E+01 0.905E+02 0.196E+03   -.223E-01 -.708E+01 -.450E+01   -.690E-04 -.157E-03 0.164E-03
   -.342E+02 0.208E+02 0.981E+02   0.390E+02 -.256E+02 -.102E+03   -.492E+01 0.497E+01 0.435E+01   -.595E-03 0.342E-03 -.854E-04
   -.746E+02 0.280E+02 0.959E+02   0.811E+02 -.311E+02 -.955E+02   -.678E+01 0.325E+01 -.454E+00   0.135E-04 -.364E-03 0.288E-03
   0.416E+02 0.527E+02 -.191E+03   -.458E+02 -.551E+02 0.198E+03   0.426E+01 0.240E+01 -.685E+01   -.492E-03 0.340E-03 -.953E-04
   0.286E+02 -.476E+02 0.163E+03   -.308E+02 0.547E+02 -.165E+03   0.234E+01 -.731E+01 0.185E+01   0.139E-04 -.245E-03 0.244E-03
   -.287E+02 0.712E+02 0.148E+03   0.286E+02 -.787E+02 -.147E+03   0.915E-01 0.772E+01 -.583E+00   -.653E-04 -.471E-03 0.887E-04
   -.613E+02 -.776E+02 0.116E+03   0.659E+02 0.842E+02 -.117E+03   -.469E+01 -.668E+01 0.105E+01   -.319E-03 -.430E-03 0.104E-03
   0.120E+03 -.102E+02 0.127E+03   -.129E+03 0.104E+02 -.127E+03   0.828E+01 -.202E+00 -.537E+00   -.151E-03 -.166E-03 -.126E-03
   0.372E+02 0.487E+01 0.708E+02   -.448E+02 -.398E+01 -.703E+02   0.779E+01 -.934E+00 -.609E+00   -.210E-03 -.745E-03 -.482E-03
   -.576E+02 -.437E+02 -.209E+03   0.609E+02 0.486E+02 0.215E+03   -.328E+01 -.495E+01 -.598E+01   -.642E-03 -.470E-03 0.221E-03
   0.453E+02 0.594E+02 0.765E+02   -.485E+02 -.656E+02 -.730E+02   0.328E+01 0.627E+01 -.354E+01   -.393E-03 -.518E-03 -.134E-03
   -.159E+02 -.346E+02 0.129E+03   0.161E+02 0.410E+02 -.132E+03   -.263E+00 -.677E+01 0.317E+01   0.117E-03 0.400E-03 -.272E-03
   0.189E+02 -.453E+02 0.180E+03   -.232E+02 0.511E+02 -.182E+03   0.441E+01 -.594E+01 0.228E+01   0.243E-03 0.139E-03 0.122E-03
   -.207E+01 -.366E+02 0.238E+03   0.259E+01 0.404E+02 -.245E+03   -.515E+00 -.386E+01 0.729E+01   0.164E-03 0.456E-04 -.120E-04
   0.440E+02 -.136E+02 0.191E+03   -.500E+02 0.170E+02 -.195E+03   0.618E+01 -.354E+01 0.405E+01   -.317E-04 0.267E-03 0.152E-03
   -.176E+01 0.498E+02 0.228E+03   0.112E+01 -.516E+02 -.236E+03   0.646E+00 0.182E+01 0.809E+01   0.116E-03 0.182E-03 -.828E-04
   0.674E+02 0.709E+01 -.691E+02   -.751E+02 -.732E+01 0.722E+02   0.770E+01 0.247E+00 -.303E+01   -.188E-03 -.512E-03 0.261E-03
   0.505E+02 -.808E+02 -.152E+03   -.546E+02 0.881E+02 0.153E+03   0.412E+01 -.729E+01 -.916E+00   0.242E-03 0.455E-03 -.600E-03
   0.147E+02 0.765E+02 -.107E+03   -.132E+02 -.844E+02 0.105E+03   -.154E+01 0.793E+01 0.121E+01   0.342E-03 0.777E-03 0.143E-03
   0.170E+02 0.169E+02 -.625E+01   -.224E+02 -.194E+02 0.107E+02   0.559E+01 0.252E+01 -.459E+01   0.466E-03 -.816E-03 0.822E-04
   0.283E+02 -.520E+02 0.522E+02   -.334E+02 0.563E+02 -.483E+02   0.525E+01 -.445E+01 -.402E+01   0.133E-03 -.382E-03 0.523E-03
   0.146E+02 -.262E+02 0.207E+03   -.167E+02 0.270E+02 -.215E+03   0.214E+01 -.795E+00 0.797E+01   0.342E-03 -.119E-03 -.535E-04
   -.767E+02 -.272E+02 0.198E+03   0.838E+02 0.283E+02 -.202E+03   -.723E+01 -.106E+01 0.394E+01   0.139E-03 -.147E-03 -.209E-03
   -.833E+02 -.368E+02 0.133E+03   0.902E+02 0.407E+02 -.133E+03   -.716E+01 -.403E+01 -.162E+00   0.192E-03 -.264E-03 0.299E-03
   -.102E+03 0.110E+02 0.154E+03   0.110E+03 -.130E+02 -.155E+03   -.796E+01 0.202E+01 0.105E+01   0.127E-03 -.215E-03 0.709E-04
   0.263E+00 -.695E+02 0.998E+02   0.103E+01 0.763E+02 -.957E+02   -.133E+01 -.693E+01 -.420E+01   0.115E-03 -.199E-03 -.891E-04
   -.323E+02 -.494E+02 0.218E+03   0.362E+02 0.539E+02 -.223E+03   -.406E+01 -.454E+01 0.559E+01   -.106E-03 -.177E-03 0.102E-03
   0.759E+02 0.228E+02 0.108E+03   -.818E+02 -.268E+02 -.110E+03   0.621E+01 0.436E+01 0.246E+01   0.111E-03 -.430E-03 0.160E-03
   0.495E+02 0.515E+02 -.111E+03   -.547E+02 -.577E+02 0.109E+03   0.526E+01 0.628E+01 0.166E+01   0.874E-03 0.598E-05 0.181E-03
   -.146E+02 -.710E+02 -.194E+03   0.166E+02 0.773E+02 0.200E+03   -.200E+01 -.624E+01 -.528E+01   -.359E-03 -.250E-03 0.625E-03
   0.166E+02 0.162E+02 -.227E+03   -.186E+02 -.185E+02 0.235E+03   0.195E+01 0.232E+01 -.784E+01   0.710E-03 -.367E-03 -.431E-03
   0.251E+02 -.748E+02 -.198E+03   -.252E+02 0.817E+02 0.202E+03   0.508E-01 -.695E+01 -.472E+01   0.475E-03 0.357E-03 0.652E-03
   -.222E+02 -.221E+02 -.166E+03   0.233E+02 0.251E+02 0.171E+03   -.113E+01 -.306E+01 -.434E+01   -.207E-03 -.559E-04 -.254E-03
   -.368E+02 -.296E+02 -.132E+03   0.395E+02 0.335E+02 0.130E+03   -.283E+01 -.398E+01 0.226E+01   -.161E-03 -.321E-03 -.399E-03
   0.137E+02 0.616E+02 -.146E+03   -.165E+02 -.661E+02 0.148E+03   0.291E+01 0.447E+01 -.170E+01   -.402E-03 0.127E-03 -.319E-03
   -.629E+02 0.368E+02 -.115E+03   0.676E+02 -.385E+02 0.113E+03   -.473E+01 0.172E+01 0.196E+01   -.415E-03 0.667E-04 -.212E-03
   -.159E+03 0.489E+02 0.326E+03   0.172E+03 -.602E+02 -.316E+03   -.141E+02 0.115E+02 -.944E+01   0.347E-02 -.211E-02 -.113E-02
   -.180E+03 0.408E+02 0.375E+03   0.207E+03 -.565E+02 -.385E+03   -.279E+02 0.163E+02 0.957E+01   0.217E-02 -.369E-02 0.859E-03
   -.178E+03 0.143E+03 -.950E+03   0.176E+03 -.183E+03 0.951E+03   0.250E+01 0.391E+02 -.518E+00   -.553E-02 -.205E-02 0.153E-02
   -.361E+02 0.276E+02 0.778E+02   0.589E+02 -.371E+02 -.108E+03   -.228E+02 0.952E+01 0.298E+02   0.247E-02 0.190E-02 0.118E-02
   -.106E+03 0.101E+03 -.392E+03   0.112E+03 -.110E+03 0.404E+03   -.679E+01 0.973E+01 -.125E+02   0.757E-03 0.160E-02 -.124E-02
   -.610E+02 -.249E+02 0.154E+03   0.541E+02 0.227E+02 -.175E+03   0.924E+01 0.119E+01 0.212E+02   -.946E-03 0.434E-02 0.200E-02
   -.541E+02 0.115E+03 0.657E+03   0.717E+02 -.124E+03 -.662E+03   -.179E+02 0.103E+02 0.587E+01   -.212E-03 -.700E-04 -.131E-02
   0.604E+02 0.183E+03 0.460E+03   -.678E+02 -.194E+03 -.450E+03   0.747E+01 0.110E+02 -.108E+02   -.271E-02 0.365E-02 -.151E-03
   0.764E+02 -.832E+02 0.353E+01   -.914E+02 0.824E+02 0.121E+02   0.155E+02 0.734E+00 -.158E+02   -.565E-03 0.428E-02 -.914E-03
   0.105E+03 0.686E+02 -.778E+03   -.124E+03 -.763E+02 0.790E+03   0.190E+02 0.762E+01 -.127E+02   -.138E-02 0.553E-05 0.194E-02
[...]
   -.490E+02 -.134E+02 0.208E+03   0.485E+02 0.122E+02 -.210E+03   0.465E+00 0.750E+00 0.889E+00   -.876E-03 0.209E-02 0.194E-02
   0.686E+02 -.378E+02 -.160E+03   -.633E+02 0.363E+02 0.157E+03   -.532E+01 0.152E+01 0.326E+01   -.400E-03 0.219E-02 0.257E-02
   -.890E+02 -.229E+02 0.373E+03   0.891E+02 0.208E+02 -.374E+03   -.170E+00 0.202E+01 0.173E+01   0.162E-02 -.182E-02 -.492E-03
   -.555E+02 0.959E+02 -.272E+03   0.552E+02 -.961E+02 0.273E+03   0.348E+00 0.245E+00 -.161E+01   -.259E-02 0.395E-03 -.818E-03
   -.110E+02 0.159E+01 0.267E+02   0.117E+02 -.476E+01 -.290E+02   -.999E+00 0.962E+01 0.182E+01   -.750E-03 0.111E-02 -.142E-02
   -.293E+02 0.851E+02 0.453E+03   0.293E+02 -.835E+02 -.455E+03   -.463E-01 -.174E+01 0.154E+01   0.138E-02 0.111E-02 0.636E-03
   0.922E+02 -.522E+01 -.307E+02   -.909E+02 0.745E+01 0.310E+02   -.132E+01 -.237E+01 -.633E+00   -.197E-03 -.117E-02 -.125E-02
   0.116E+03 0.194E+02 0.141E+03   -.110E+03 -.121E+02 -.144E+03   -.282E+02 -.231E+02 0.861E+01   -.186E-02 -.282E-02 0.117E-02
   -.113E+02 0.970E+02 -.414E+03   0.130E+02 -.956E+02 0.413E+03   -.175E+01 -.153E+01 0.365E+00   -.174E-02 -.216E-02 0.136E-02
   -.320E+02 0.301E+02 0.123E+03   0.320E+02 -.309E+02 -.122E+03   -.207E+00 0.838E+00 -.106E+01   0.107E-02 0.202E-02 0.192E-02
   0.545E+02 -.173E+02 -.370E+03   -.551E+02 0.181E+02 0.370E+03   0.586E+00 -.793E+00 -.900E+00   -.256E-02 -.253E-02 -.339E-03
   0.530E+02 -.580E+02 -.318E+03   -.540E+02 0.535E+02 0.318E+03   0.105E+01 0.457E+01 0.485E-01   0.824E-03 0.250E-02 0.133E-02
   0.104E+03 0.584E+02 -.211E+03   -.996E+02 -.562E+02 0.213E+03   -.417E+01 -.217E+01 -.232E+01   0.112E-03 -.356E-02 0.502E-03
   0.823E+02 0.506E+02 -.829E+03   -.797E+02 -.522E+02 0.831E+03   -.264E+01 0.159E+01 -.149E+01   0.843E-03 -.368E-02 -.109E-02
   0.328E+03 -.231E+03 -.125E+03   0.824E-12 -.185E-12 -.682E-12   -.328E+03 0.231E+03 0.125E+03   0.284E-02 -.132E-01 0.111E-01

 POSITION                                       TOTAL-FORCE (eV/Angst)
     13.27790      9.07352     19.42389        -0.011103      0.006716      0.012170
     14.01561      8.29859     20.48291        -0.010145      0.005456      0.017940
     17.81069      1.87724     17.50280         0.000013      0.002017      0.000091
     21.68887      5.04983      9.57948         0.101989      0.072597     -0.026002
     18.57311      3.75615     10.03977         0.038146      0.113298      0.045820
     22.81522     17.09936      8.74523         0.109266      0.056250      0.029425
     14.64921     17.45932     10.08748         0.054741     -0.004693     -0.058851
     19.20987     18.03075      9.91976         0.120788      0.024028     -0.000805
     17.55831      2.55833     12.31361        -0.109924     -0.220819     -0.130859
     21.43282      4.52069     13.68273        -0.000202      0.000003      0.000183
     13.66032      5.51363      8.22435        -0.100427     -0.129115      0.042448
     20.87026      6.06617     16.55554         0.004646     -0.004359      0.003740
     13.75174      6.50775     16.53296         0.004349     -0.012988     -0.014665
     13.89166     15.78190     15.53975        -0.003343     -0.000397     -0.005877
      0.78674      6.11747     17.53755        -0.001183      0.012282      0.008801
     21.89589      7.60212     12.20778        -0.087981      0.135028      0.069659
     17.46807      9.60991     11.35790        -0.319677      0.158998     -0.037060
     18.68608      6.93099     17.06972        -0.001855     -0.001561      0.001645
     13.83846     10.30524     10.16285         0.097559     -0.185067      0.061861
     16.81947     11.70510     10.30871        -0.028477      0.240982     -0.019278
     19.69248      9.82944     11.28016        -0.105766     -0.102690      0.013571
      0.11154     10.94157      9.61829         0.110984     -0.009334     -0.030238
     19.39295     12.90878     12.57986         0.232293     -0.039672     -0.054395
     20.51991     10.84936     19.39925         0.002546     -0.000640      0.000908
     12.17365     17.85965     11.33680         0.013856      0.130571     -0.099318
      5.22293     17.76162     10.57067        -0.010260     -0.353782      0.119491
      5.06559      4.31016      8.58199         0.180058     -0.200465      0.070589
      3.68730      5.97650      7.50000         0.015026     -0.079859      0.118491
      7.99605      2.81941      8.89229         0.085858     -0.090777      0.065454
      5.21407      0.82921      8.67630         0.004038      0.017636      0.150472
     11.96409     14.97514     14.69778         0.002852      0.002342     -0.002635
      8.83469      4.38334     17.40789        -0.010163     -0.001292      0.002531
      5.70312      1.69760     16.09922        -0.002736      0.014399      0.001007
      7.38348      8.82752     11.89413         0.231981      0.092838     -0.171132
      9.57419      7.95042     10.90633         0.121375     -0.110672     -0.117410
      9.32939     14.37220     10.45190         0.053544      0.001111      0.128047
      5.71709     11.87720      7.91250        -0.104766     -0.017579      0.040005
      7.29827      7.58330      9.92689        -0.165014     -0.093154     -0.010915
      9.49268     10.58787      9.10862        -0.109780      0.037170     -0.005264
      3.26254      8.84269      9.46105        -0.024397     -0.206405     -0.121529
     13.88920     12.64839      9.47364        -0.127880     -0.096918      0.164418
     10.98006     15.61013     11.93160         0.313958      0.332969      0.163076
      2.85010      5.88123     16.45035         0.004451      0.004971      0.001030
      1.67818     12.06503     17.35105         0.003049     -0.003569     -0.001343
      5.66069      7.00207     18.34831        -0.005020     -0.002148      0.009903
      5.75365     14.77715     18.00346         0.001063      0.005026      0.004783
     14.24569      8.92674     21.36100        -0.004587      0.020020      0.011979
     13.85082      9.89852     18.95580        -0.017746     -0.014472      0.005301
     13.44348      7.42168     20.81555        -0.018214      0.009984      0.030480
     14.98308      7.95106     20.07660        -0.016436     -0.017165      0.021385
      8.63740     11.74900     11.80180        -0.226198      0.127709     -0.195089
      8.11940      9.13372     11.30145        -0.091545      0.612868      0.029641
     20.15111     10.25649     18.72790        -0.006250      0.005200      0.011450
      8.15553     17.37342     14.26410         0.019523      0.001193     -0.001677
      0.78313     16.89903     14.20872         0.002678     -0.003842      0.001989
     14.89791      1.42920     13.15609         2.278564     -0.942653     -0.050218
      1.60710      0.94711     10.62191        -0.311439      0.485249      0.115509
     10.57955      2.34783     11.30707         0.052660      0.071270     -0.127996
     18.86679      3.87161     12.98914         0.537911     -0.047536     -0.197707
     22.78191      3.28967     16.09717         0.002530      0.002617      0.002179
[...]
      5.71814      6.71222     11.31648         0.020869     -0.130630     -0.110986
     15.41693      5.98005     12.10687        -0.160180     -0.476767     -0.814523
     10.76974      5.76274     14.21732        -0.002778     -0.007608     -0.005044
      7.89661     10.69049     10.72869        -0.131434     -0.085054     -0.065409
     18.80622      8.63333     15.58488        -0.002409      0.000657      0.005846
      1.62029     16.28844     12.91761        -0.323162      6.443135     -0.549369
      4.96103      2.61769     10.04353        -0.068746     -0.040314      0.063171
      1.83153      8.95162     13.29887         0.014430     -0.145801     -0.316410
     13.05344     15.44546     12.76235       -22.325485    -15.840914      4.719176
     16.82116     10.59718     16.38400        -0.010344     -0.000220      0.005309
      6.71066      3.80730     12.34244        -0.228343      0.000519     -0.752104
      2.06247     11.33395     15.25990        -0.003430      0.003486     -0.002805
      8.26578      0.35499     15.54554        -0.001643     -0.002895     -0.003563
     11.39784      8.68899     15.36402         0.006347     -0.005221     -0.004956
     11.58151      8.93975     18.57434        -0.003763     -0.008843      0.001265
    total drift:                                0.189104      0.506993     -0.026985

  FREE ENERGIE OF THE ION-ELECTRON SYSTEM (eV)
  free  energy   TOTEN  =     -1854.37770942 eV

  energy  without entropy=    -1854.37770942  energy(sigma->0) =    -1854.37770942

 d Force = 0.7659581E-05[-0.732E-05, 0.226E-04]  d Energy =-0.4987170E-05 0.126E-04
 d Force =-0.7296494E-01[-0.730E-01,-0.729E-01]  d Ewald  =-0.7296484E-01-0.105E-06

 reached required accuracy - stopping structural energy minimisation
 writing wavefunctions