 vasp.5.4.4.18Apr17-6-g9f103f2a35 (build Oct 20 2021 08:33:53) complex
 executed on             LinuxGNU date 2024.03.20  00:54:11

 INCAR:
 POTCAR:    PAW_PBE C 08Apr2002
 POTCAR:    PAW_PBE H 15Jun2001
 POTCAR:    PAW_PBE O 08Apr2002
 POTCAR:    PAW_PBE Si 05Jan2001
 POTCAR:    PAW_PBE W 08Apr2002
 POTCAR:    PAW_PBE C 08Apr2002
   VRHFIN =C: s2p2

   TITEL  = PAW_PBE C 08Apr2002
   POMASS =   12.011; ZVAL   =    4.000    mass and valenz
   ENMAX  =  400.000; ENMIN  =  300.000 eV

 POTCAR:    PAW_PBE H 15Jun2001
   VRHFIN =H: ultrasoft test

   TITEL  = PAW_PBE H 15Jun2001
   POMASS =    1.000; ZVAL   =    1.000    mass and valenz
   ENMAX  =  250.000; ENMIN  =  200.000 eV

 POTCAR:    PAW_PBE O 08Apr2002
   VRHFIN =O: s2p4

[...]

 POTCAR:    PAW_PBE Si 05Jan2001
   VRHFIN =Si: s2p2

   TITEL  = PAW_PBE Si 05Jan2001
   POMASS =   28.085; ZVAL   =    4.000    mass and valenz
   ENMAX  =  245.345; ENMIN  =  184.009 eV

 POTCAR:    PAW_PBE W 08Apr2002
   VRHFIN =W : 6s5d

   TITEL  = PAW_PBE W 08Apr2002
   POMASS =  183.850; ZVAL   =    6.000    mass and valenz
   ENMAX  =  223.057; ENMIN  =  167.293 eV

 Optimization of the real space projectors (new method)

 maximal supplied QI-value         = 25.13
 optimisation between [QCUT,QGAM] = [ 11.31, 22.87] = [ 35.82,146.48] Ry
 Optimized for a Real-space Cutoff    1.00 Angstroem

   l    n(q)    QCUT    max X(q) W(low)/X(q) W(high)/X(q)  e(spline)
   0      7    11.310   115.676    0.43E-03    0.13E-02    0.19E-06
   0      7    11.310    87.132    0.43E-03    0.13E-02    0.18E-06
   1      6    11.310     4.429    0.42E-03    0.74E-03    0.11E-06
   1      6    11.310     2.733    0.34E-03    0.55E-03    0.92E-07
 Optimization of the real space projectors (new method)

[...]

   l    n(q)    QCUT    max X(q) W(low)/X(q) W(high)/X(q)  e(spline)
   0      8    11.310   159.560    0.27E-03    0.30E-03    0.39E-07
   0      8    11.310   115.863    0.27E-03    0.30E-03    0.38E-07
   1      7    11.310    88.339    0.28E-03    0.28E-03    0.77E-07
   1      7    11.310    48.592    0.27E-03    0.27E-03    0.74E-07
 Optimization of the real space projectors (new method)

 maximal supplied QI-value         = 13.61
 optimisation between [QCUT,QGAM] = [ 11.43, 22.86] = [ 36.58,146.31] Ry
 Optimized for a Real-space Cutoff    1.56 Angstroem

   l    n(q)    QCUT    max X(q) W(low)/X(q) W(high)/X(q)  e(spline)
   2     10    11.429   130.855    0.22E-03    0.64E-03    0.11E-05
   2     10    11.429   114.007    0.22E-03    0.64E-03    0.11E-05
   0     11    11.429    84.709    0.39E-04    0.67E-04    0.23E-06
   0     11    11.429    49.163    0.35E-04    0.62E-04    0.21E-06
   1     10    11.429    15.765    0.84E-04    0.15E-03    0.24E-06
   1     10    11.429    10.638    0.58E-04    0.12E-03    0.19E-06

  PAW_PBE C 08Apr2002                   :
  PAW_PBE H 15Jun2001                   :
  PAW_PBE O 08Apr2002                   :
  PAW_PBE Si 05Jan2001                  :
  PAW_PBE W 08Apr2002                   :

 POSCAR: C  H  O  Si W
  positions in direct lattice
  velocities in cartesian coordinates
 exchange correlation table for  LEXCH =        9
   RHO(1)=    0.500       N(1)  =     2000
   RHO(2)=  100.500       N(2)  =     4000

 VTST: version 3.2, (02/03/18)

 CHAIN: initializing optimizer

 OPT: Using VASP QUASI-newton optimizer
 CHAIN: Read ICHAIN            0

 POSCAR: C  H  O  Si W
  positions in direct lattice
  velocities in cartesian coordinates

 ion  position               nearest neighbor table
   1  0.522  0.552  0.760-  49 1.10   3 1.53   2 1.54 277 2.18
   2  0.561  0.485  0.767-  50 1.10 210 1.49   4 1.52   1 1.54 277 2.63
   3  0.552  0.627  0.754-  52 1.10  53 1.10  51 1.10   1 1.53
   4  0.547  0.433  0.809-  56 1.10  55 1.10  54 1.10   2 1.52
   5  0.761  0.104  0.651- 131 0.97
   6  0.926  0.279  0.356-  79 0.98
   7  0.793  0.207  0.373- 114 0.97
   8  0.975  0.944  0.325- 123 0.97
   9  0.626  0.963  0.375- 125 0.98
  10  0.821  0.995  0.369- 143 0.97
  11  0.750  0.141  0.458- 181 0.98
  12  0.915  0.249  0.510- 186 0.97
  13  0.583  0.304  0.306- 191 0.97
  14  0.891  0.335  0.616-  97 0.98
  15  0.592  0.359  0.617- 142 0.97
  16  0.593  0.871  0.578- 184 0.99
  17  0.034  0.337  0.652- 190 0.97
  18  0.935  0.420  0.454- 179 0.98
  19  0.746  0.530  0.422-  93 1.00
  20  0.799  0.383  0.635- 171 0.97
  21  0.591  0.569  0.378- 105 0.99
  22  0.718  0.646  0.383- 128 0.99
  23  0.841  0.542  0.420- 134 0.98
  24  0.005  0.604  0.358- 139 0.97
  25  0.828  0.712  0.468- 180 0.99
  26  0.874  0.598  0.723-  59 0.97
  27  0.520  0.986  0.422- 141 0.99
  28  0.223  0.980  0.393- 182 1.00
  29  0.216  0.238  0.319- 197 0.99
  30  0.158  0.330  0.279- 188 0.97
  31  0.342  0.156  0.331- 189 0.98
  32  0.223  0.046  0.323- 196 0.97
  33  0.511  0.827  0.547- 199 0.97
  34  0.372  0.238  0.648-  84 0.97
  35  0.243  0.093  0.599- 135 0.98
  36  0.315  0.487  0.442-  58 0.99
  37  0.409  0.439  0.406- 147 0.98
  38  0.398  0.793  0.389- 185 0.97
  39  0.244  0.655  0.294- 193 0.97
  40  0.312  0.418  0.369- 194 0.98
  41  0.405  0.584  0.339- 195 0.97
  42  0.139  0.488  0.352- 187 0.98
  43  0.593  0.698  0.352-  88 0.97
  44  0.469  0.861  0.444- 198 0.99
  45  0.122  0.323  0.612- 107 0.97
  46  0.073  0.664  0.646- 138 0.97
  47  0.242  0.388  0.683- 183 0.97
  48  0.247  0.815  0.670- 192 0.97
  49  0.488  0.556  0.789-   1 1.10
  50  0.607  0.502  0.767-   2 1.10
  51  0.572  0.644  0.789-   3 1.10
  52  0.586  0.623  0.726-   3 1.10
  53  0.522  0.670  0.742-   3 1.10
  54  0.556  0.461  0.845-   4 1.10
  55  0.502  0.418  0.808-   4 1.10
  56  0.573  0.383  0.807-   4 1.10
  57  0.369  0.648  0.439- 231 1.66 266 1.68
  58  0.347  0.504  0.420-  36 0.99 266 1.67
  59  0.861  0.565  0.697-  26 0.97 237 1.64
  60  0.349  0.960  0.530- 242 1.68 275 1.70
[...]
 219  0.214  0.476  0.510- 178 1.61 177 1.63 137 1.66 174 1.66 230 3.11 263 3.14
 220  0.915  0.756  0.496- 102 1.65 180 1.65  86 1.65  91 1.66 233 2.99 241 3.03
 221  0.521  0.110  0.426- 113 1.64  64 1.65 141 1.66 121 1.67 252 3.08 235 3.12
 222  0.418  0.171  0.590-  84 1.64 201 1.65 101 1.68 161 1.69 275 3.13 262 3.14
 223  0.083  0.139  0.407-  63 1.64 144 1.65  89 1.65 157 1.66 216 3.11 215 3.13 269 3.14
 224  0.702  0.045  0.487-  96 1.64 165 1.65  62 1.65 181 1.66 235 3.09 225 3.10 259 3.15
 225  0.665  0.898  0.437-  95 1.53 165 1.66 125 1.66 156 1.67 271 2.83 258 3.06 224 3.10
 226  0.650  0.504  0.430- 105 1.65 163 1.65  93 1.67  99 1.68 234 3.07
 227  0.198  0.912  0.464- 136 1.50 182 1.64 159 1.66 115 1.67 245 3.01 242 3.07 268 3.07
 228  0.214  0.367  0.604-  83 1.63 178 1.63 107 1.64 183 1.64
 229  0.674  0.814  0.595- 184 1.62 116 1.64  98 1.68 206 1.71 256 2.90
 230  0.217  0.642  0.539- 169 1.63 176 1.63 202 1.65 137 1.65 245 3.09 219 3.11 274 3.12
 231  0.369  0.735  0.459-  73 1.65 104 1.66  57 1.66 185 1.68
 232  0.798  0.889  0.596- 140 1.66  98 1.66 109 1.67 205 1.68 241 2.86 233 2.99 259 3.15
 233  0.880  0.912  0.512-  72 1.60  91 1.62 109 1.65 117 1.65 220 2.99 232 2.99 257 3.05 248 3.13

 234  0.577  0.575  0.512-  99 1.58 166 1.63 100 1.63 133 1.65 244 3.00 226 3.07 218 3.14 276 3.15

[...]

 273  0.287  0.210  0.459- 173 1.63 122 1.63  67 1.66 152 1.67 251 3.03 269 3.12
 274  0.088  0.626  0.568- 138 1.63 162 1.63 108 1.64 169 1.65 270 3.10 230 3.12 250 3.15
 275  0.353  0.021  0.578- 161 1.63  69 1.66 208 1.70  60 1.70 242 2.38 261 2.74 222 3.13
 276  0.485  0.483  0.571- 133 1.64  77 1.65 127 1.67  85 1.68 253 2.95 234 3.15
 277  0.485  0.497  0.696- 211 1.72 210 1.92 124 1.94  77 1.97   1 2.18   2 2.63 253 3.14

  LATTYP: Found a simple orthorhombic cell.
 ALAT       =    18.1212369514
 B/A-ratio  =     1.2919258579
 C/A-ratio  =     1.4835282260

  Lattice vectors:

 A1 = (   0.0000000000, -18.1212369514,   0.0000000000)
 A2 = ( -23.4112945954,   0.0000000000,   0.0000000000)
 A3 = (   0.0000000000,   0.0000000000, -26.8833665073)

Analysis of symmetry for initial positions (statically):
 Subroutine PRICEL returns:
 Original cell was already a primitive cell.

 Routine SETGRP: Setting up the symmetry group for a
 simple orthorhombic supercell.

 Subroutine GETGRP returns: Found  1 space group operations
 (whereof  1 operations were pure point group operations)
 out of a pool of  8 trial point group operations.

The static configuration has the point symmetry C_1 .

Analysis of symmetry for dynamics (positions and initial velocities):
 Subroutine PRICEL returns:
 Original cell was already a primitive cell.

[...]

The dynamic configuration has the point symmetry C_1 .

Analysis of constrained symmetry for selective dynamics:
 Subroutine PRICEL returns:
 Original cell was already a primitive cell.

 Routine SETGRP: Setting up the symmetry group for a
 simple orthorhombic supercell.

 Subroutine GETGRP returns: Found  1 space group operations
 (whereof  1 operations were pure point group operations)
 out of a pool of  8 trial point group operations.

The constrained configuration has the point symmetry C_1 .

 Subroutine INISYM returns: Found  1 space group operations
 (whereof  1 operations are pure point group operations),
 and found     1 'primitive' translations

 KPOINTS: KPOINTS created by Atomic Simulation Env

Automatic generation of k-mesh.
Space group operators:
 irot       det(A)        alpha          n_x          n_y          n_z        tau_x        tau_y        tau_z
    1     1.000000     0.000000     1.000000     0.000000     0.000000     0.000000     0.000000     0.000000

 Subroutine IBZKPT returns following result:

 Found      5 irreducible k-points:

 Following reciprocal coordinates:
            Coordinates               Weight
  0.000000  0.000000  0.000000      1.000000
  0.333333  0.000000  0.000000      2.000000
  0.000000  0.333333  0.000000      2.000000
  0.333333  0.333333  0.000000      2.000000
 -0.333333  0.333333  0.000000      2.000000

 Following cartesian coordinates:
            Coordinates               Weight
  0.000000  0.000000  0.000000      1.000000
  0.014238  0.000000  0.000000      2.000000
  0.000000  0.018395  0.000000      2.000000
  0.014238  0.018395  0.000000      2.000000
 -0.014238  0.018395  0.000000      2.000000

 SYSTEM =  unknown system
 POSCAR =  C  H  O  Si W

 Startparameter for this run:
   NWRITE =      2    write-flag & timer
   PREC   = normal    normal or accurate (medium, high low for compatibility)
   ISTART =      0    job   : 0-new  1-cont  2-samecut
   ICHARG =      2    charge: 1-file 2-atom 10-const
   ISPIN  =      1    spin polarized calculation?
   LNONCOLLINEAR =      F non collinear calculations
   LSORBIT =      F    spin-orbit coupling
   INIWAV =      1    electr: 0-lowe 1-rand  2-diag
   LASPH  =      T    aspherical Exc in radial PAW
   METAGGA=      F    non-selfconsistent MetaGGA calc.

 Electronic Relaxation 1
   ENCUT  =  500.0 eV  36.75 Ry    6.06 a.u.  42.68 33.04 49.01*2*pi/ulx,y,z
   ENINI  =  500.0     initial cutoff
   ENAUG  =  644.9 eV  augmentation charge cutoff
   NELM   =     60;   NELMIN=  2; NELMDL=  0     # of ELM steps
   EDIFF  = 0.1E-03   stopping-criterion for ELM
   LREAL  =      T    real-space projection
[...]
   0.379E+02 0.500E+01 -.216E+03   -.414E+02 -.743E+01 0.223E+03   0.356E+01 0.246E+01 -.720E+01   0.763E-03 -.248E-03 -.103E-02
   0.964E+02 0.274E+02 0.131E+03   -.104E+03 -.310E+02 -.130E+03   0.737E+01 0.362E+01 -.924E+00   0.230E-03 0.104E-03 0.741E-04
   0.274E+02 0.736E+02 0.168E+03   -.298E+02 -.810E+02 -.171E+03   0.240E+01 0.751E+01 0.249E+01   0.830E-04 0.304E-03 -.199E-03
   0.833E+02 0.519E+02 0.179E+03   -.906E+02 -.547E+02 -.181E+03   0.733E+01 0.292E+01 0.253E+01   0.344E-03 -.194E-04 -.907E-04
   0.481E+02 -.602E+02 0.163E+03   -.537E+02 0.660E+02 -.165E+03   0.572E+01 -.579E+01 0.116E+01   -.230E-03 -.717E-04 -.395E-03
   0.929E+02 0.256E+02 0.149E+03   -.101E+03 -.270E+02 -.149E+03   0.814E+01 0.144E+01 0.297E+00   -.207E-05 0.682E-04 -.633E-03
   -.674E+01 -.674E+02 0.392E+02   0.903E+01 0.744E+02 -.367E+02   -.236E+01 -.718E+01 -.262E+01   0.102E-03 0.730E-03 -.160E-03
   0.245E+02 -.874E+02 -.130E+02   -.246E+02 0.958E+02 0.134E+02   0.185E+00 -.839E+01 -.343E+00   0.106E-02 0.951E-04 -.570E-03
   -.374E+02 -.788E+02 0.194E+03   0.395E+02 0.858E+02 -.197E+03   -.220E+01 -.716E+01 0.347E+01   -.645E-04 0.110E-04 -.224E-04
   0.538E+02 -.442E+02 -.839E+02   -.594E+02 0.492E+02 0.805E+02   0.561E+01 -.502E+01 0.345E+01   0.773E-03 0.110E-02 -.224E-02
   0.411E+01 -.518E+02 -.139E+03   -.700E+01 0.591E+02 0.142E+03   0.293E+01 -.729E+01 -.295E+01   -.349E-03 -.675E-03 -.572E-03
   0.605E+02 -.140E+02 -.700E+02   -.675E+02 0.124E+02 0.667E+02   0.693E+01 0.157E+01 0.327E+01   0.636E-03 -.112E-02 -.151E-05
   -.199E+01 -.830E+02 -.191E+03   0.205E+01 0.900E+02 0.196E+03   -.703E-01 -.705E+01 -.452E+01   0.104E-02 -.173E-02 -.566E-03
   -.344E+02 0.209E+02 0.988E+02   0.392E+02 -.257E+02 -.103E+03   -.492E+01 0.497E+01 0.435E+01   0.800E-05 -.104E-03 0.211E-04
   -.754E+02 0.281E+02 0.971E+02   0.819E+02 -.312E+02 -.967E+02   -.678E+01 0.325E+01 -.457E+00   0.463E-03 -.343E-03 -.105E-03
   0.381E+02 0.523E+02 -.191E+03   -.422E+02 -.546E+02 0.198E+03   0.410E+01 0.231E+01 -.698E+01   -.276E-02 0.968E-04 0.239E-02
   0.281E+02 -.475E+02 0.165E+03   -.304E+02 0.546E+02 -.167E+03   0.234E+01 -.731E+01 0.185E+01   -.133E-03 0.126E-04 -.443E-03
   -.294E+02 0.711E+02 0.149E+03   0.293E+02 -.786E+02 -.148E+03   0.917E-01 0.772E+01 -.587E+00   0.117E-03 -.133E-03 -.362E-03
   -.619E+02 -.776E+02 0.116E+03   0.665E+02 0.841E+02 -.117E+03   -.469E+01 -.668E+01 0.105E+01   0.111E-03 -.340E-03 0.873E-04
   0.120E+03 -.102E+02 0.128E+03   -.129E+03 0.104E+02 -.127E+03   0.828E+01 -.202E+00 -.541E+00   0.787E-04 0.119E-03 0.314E-04
   0.364E+02 0.470E+01 0.720E+02   -.439E+02 -.382E+01 -.714E+02   0.779E+01 -.934E+00 -.611E+00   0.938E-03 -.489E-03 -.565E-03
   -.549E+02 -.430E+02 -.211E+03   0.578E+02 0.479E+02 0.218E+03   -.285E+01 -.488E+01 -.624E+01   0.159E-03 -.380E-03 0.188E-03
   0.451E+02 0.592E+02 0.777E+02   -.484E+02 -.654E+02 -.742E+02   0.328E+01 0.627E+01 -.354E+01   -.389E-03 -.156E-03 -.494E-03
   -.153E+02 -.347E+02 0.129E+03   0.156E+02 0.411E+02 -.132E+03   -.263E+00 -.677E+01 0.317E+01   -.551E-04 -.113E-03 0.514E-03
   0.193E+02 -.452E+02 0.180E+03   -.236E+02 0.509E+02 -.182E+03   0.441E+01 -.594E+01 0.227E+01   -.149E-04 -.135E-03 0.169E-03
   -.171E+01 -.365E+02 0.238E+03   0.223E+01 0.403E+02 -.245E+03   -.515E+00 -.386E+01 0.731E+01   0.122E-04 -.921E-04 0.456E-04
   0.443E+02 -.135E+02 0.191E+03   -.504E+02 0.169E+02 -.195E+03   0.618E+01 -.353E+01 0.404E+01   -.144E-03 -.405E-04 0.177E-03
   -.136E+01 0.498E+02 0.229E+03   0.715E+00 -.516E+02 -.237E+03   0.646E+00 0.182E+01 0.808E+01   -.264E-04 -.137E-04 0.259E-03
   0.670E+02 0.302E+01 -.665E+02   -.747E+02 -.311E+01 0.696E+02   0.770E+01 0.972E-01 -.305E+01   -.117E-02 -.856E-03 -.142E-03
   0.627E+02 -.707E+02 -.149E+03   -.679E+02 0.772E+02 0.150E+03   0.522E+01 -.652E+01 -.884E+00   -.153E-03 0.615E-03 0.608E-04
   0.176E+02 0.768E+02 -.106E+03   -.161E+02 -.847E+02 0.104E+03   -.144E+01 0.794E+01 0.121E+01   0.278E-03 0.204E-03 -.726E-03
   0.180E+02 0.172E+02 -.416E+01   -.234E+02 -.196E+02 0.861E+01   0.559E+01 0.252E+01 -.459E+01   0.293E-03 0.155E-03 0.245E-03
   0.286E+02 -.515E+02 0.540E+02   -.337E+02 0.559E+02 -.501E+02   0.525E+01 -.445E+01 -.402E+01   -.958E-04 -.130E-03 0.120E-03
   0.150E+02 -.266E+02 0.209E+03   -.170E+02 0.274E+02 -.216E+03   0.214E+01 -.795E+00 0.797E+01   -.298E-03 0.520E-05 0.298E-03
   -.762E+02 -.273E+02 0.198E+03   0.833E+02 0.284E+02 -.202E+03   -.723E+01 -.106E+01 0.394E+01   -.365E-04 0.969E-04 0.983E-04
   -.827E+02 -.366E+02 0.134E+03   0.897E+02 0.405E+02 -.134E+03   -.716E+01 -.403E+01 -.165E+00   0.679E-04 -.123E-03 -.574E-04
   -.102E+03 0.110E+02 0.155E+03   0.109E+03 -.130E+02 -.156E+03   -.795E+01 0.202E+01 0.105E+01   -.150E-03 0.791E-04 -.158E-04
   0.707E+00 -.695E+02 0.100E+03   0.590E+00 0.762E+02 -.962E+02   -.133E+01 -.693E+01 -.421E+01   -.165E-04 0.288E-05 -.191E-03
   -.327E+02 -.496E+02 0.219E+03   0.366E+02 0.540E+02 -.224E+03   -.406E+01 -.454E+01 0.558E+01   -.148E-03 0.447E-04 -.230E-03
   0.759E+02 0.220E+02 0.110E+03   -.818E+02 -.260E+02 -.112E+03   0.621E+01 0.436E+01 0.246E+01   -.505E-03 -.322E-03 0.529E-04
   0.502E+02 0.526E+02 -.110E+03   -.555E+02 -.589E+02 0.108E+03   0.523E+01 0.633E+01 0.166E+01   -.537E-03 -.153E-02 -.143E-03
   -.162E+02 -.689E+02 -.195E+03   0.184E+02 0.749E+02 0.201E+03   -.227E+01 -.601E+01 -.544E+01   -.169E-03 0.720E-03 0.111E-02
   0.206E+02 0.160E+02 -.226E+03   -.225E+02 -.182E+02 0.234E+03   0.189E+01 0.217E+01 -.791E+01   -.907E-04 -.509E-03 -.135E-02
   0.262E+02 -.750E+02 -.198E+03   -.262E+02 0.819E+02 0.203E+03   -.713E-01 -.685E+01 -.487E+01   0.382E-03 0.100E-02 0.301E-03
   0.600E+02 -.203E+02 -.176E+03   -.639E+02 0.206E+02 0.179E+03   0.390E+01 -.329E+00 -.387E+01   -.101E-02 -.103E-02 -.375E-03
   -.900E+02 -.408E+01 -.135E+03   0.955E+02 0.555E+01 0.135E+03   -.546E+01 -.150E+01 -.610E-01   -.729E-03 -.220E-03 0.842E-04
   -.319E+02 -.441E+02 -.174E+03   0.341E+02 0.457E+02 0.178E+03   -.225E+01 -.159E+01 -.466E+01   -.115E-03 0.867E-04 -.193E-03
   -.555E+02 -.227E+02 -.115E+03   0.595E+02 0.224E+02 0.112E+03   -.405E+01 0.287E+00 0.375E+01   -.334E-03 0.333E-03 0.105E-02
   0.348E+02 -.736E+02 -.132E+03   -.383E+02 0.777E+02 0.130E+03   0.351E+01 -.398E+01 0.163E+01   0.155E-03 0.446E-04 0.548E-03
   -.157E+02 -.804E+01 -.161E+03   0.167E+02 0.104E+02 0.166E+03   -.103E+01 -.240E+01 -.481E+01   0.119E-04 0.187E-03 0.200E-03
   0.588E+02 0.426E+02 -.132E+03   -.641E+02 -.441E+02 0.132E+03   0.536E+01 0.143E+01 0.141E+00   -.172E-02 -.349E-03 -.155E-02
   -.401E+02 0.745E+02 -.119E+03   0.431E+02 -.791E+02 0.119E+03   -.299E+01 0.465E+01 0.333E+00   -.608E-03 -.291E-04 -.766E-03
   -.153E+03 0.469E+02 0.341E+03   0.167E+03 -.583E+02 -.331E+03   -.141E+02 0.115E+02 -.954E+01   -.201E-02 0.238E-02 0.278E-02
   -.175E+03 0.422E+02 0.388E+03   0.203E+03 -.579E+02 -.397E+03   -.279E+02 0.163E+02 0.948E+01   0.280E-03 0.777E-03 0.810E-03
   -.194E+03 0.144E+03 -.942E+03   0.193E+03 -.184E+03 0.942E+03   0.372E+00 0.391E+02 0.817E+00   0.864E-02 0.352E-02 0.156E-01
   -.296E+02 0.251E+02 0.890E+02   0.525E+02 -.345E+02 -.119E+03   -.229E+02 0.937E+01 0.296E+02   -.321E-02 -.249E-02 -.112E-01
[...]
   -.518E+02 -.118E+02 0.214E+03   0.512E+02 0.106E+02 -.216E+03   0.460E+00 0.733E+00 0.861E+00   -.116E-02 -.237E-03 0.147E-02
   0.683E+02 -.334E+02 -.148E+03   -.629E+02 0.317E+02 0.145E+03   -.542E+01 0.171E+01 0.312E+01   -.190E-02 -.530E-03 0.318E-02
   -.860E+02 -.231E+02 0.379E+03   0.861E+02 0.210E+02 -.381E+03   -.158E+00 0.201E+01 0.169E+01   -.472E-03 0.115E-02 0.767E-03
   -.619E+02 0.977E+02 -.265E+03   0.616E+02 -.979E+02 0.267E+03   0.318E+00 0.189E+00 -.178E+01   -.115E-03 0.178E-02 -.444E-02
   -.988E+01 0.134E+01 0.298E+02   0.106E+02 -.452E+01 -.321E+02   -.967E+00 0.960E+01 0.175E+01   0.208E-02 -.657E-03 0.443E-03
   -.274E+02 0.855E+02 0.456E+03   0.274E+02 -.838E+02 -.457E+03   -.426E-01 -.174E+01 0.151E+01   -.167E-03 -.202E-03 0.165E-02
   0.953E+02 -.493E+01 -.268E+02   -.939E+02 0.718E+01 0.272E+02   -.139E+01 -.239E+01 -.677E+00   -.109E-02 -.297E-02 -.156E-02
   0.114E+03 0.151E+02 0.149E+03   -.108E+03 -.784E+01 -.153E+03   -.282E+02 -.231E+02 0.857E+01   -.180E-02 -.145E-02 -.629E-03
   -.240E+02 0.994E+02 -.403E+03   0.258E+02 -.979E+02 0.403E+03   -.180E+01 -.155E+01 0.402E+00   -.566E-03 0.234E-04 0.188E-03
   -.291E+02 0.313E+02 0.129E+03   0.291E+02 -.321E+02 -.128E+03   -.194E+00 0.845E+00 -.116E+01   -.591E-03 -.620E-03 0.260E-02
   0.581E+02 -.181E+02 -.366E+03   -.587E+02 0.189E+02 0.367E+03   0.558E+00 -.781E+00 -.981E+00   -.109E-02 0.579E-03 -.180E-02
   0.580E+02 -.589E+02 -.311E+03   -.589E+02 0.542E+02 0.311E+03   0.902E+00 0.464E+01 -.110E+00   -.391E-02 0.290E-02 -.328E-02
   0.101E+03 0.728E+02 -.177E+03   -.971E+02 -.698E+02 0.179E+03   -.407E+01 -.297E+01 -.268E+01   -.252E-02 -.464E-02 -.938E-03
   0.126E+03 0.759E+02 -.720E+03   -.126E+03 -.754E+02 0.722E+03   -.896E+00 -.488E+00 -.222E+01   -.151E-01 -.153E-01 0.950E-02
   0.334E+03 -.237E+03 -.122E+03   -.426E-13 0.810E-12 0.239E-11   -.334E+03 0.237E+03 0.123E+03   0.128E+00 0.105E+00 0.547E-01

 POSITION                                       TOTAL-FORCE (eV/Angst)
     12.21283     10.01015     20.43402        -0.004119     -0.000187      0.004863
     13.14378      8.79638     20.61392         0.002738     -0.000942      0.004425
     12.92572     11.35314     20.25666        -0.003150     -0.005740     -0.002858
     12.80749      7.85457     21.76200         0.001159     -0.001949      0.017864
     17.81338      1.88260     17.50549         0.005393      0.003016     -0.010014
     21.68887      5.04983      9.57948         0.103482      0.074335     -0.016407
     18.57311      3.75615     10.03977         0.038776      0.114561      0.055782
     22.81522     17.09936      8.74523         0.110702      0.058714      0.042160
     14.64921     17.45932     10.08748         0.055366     -0.004631     -0.050033
     19.20987     18.03075      9.91976         0.122989      0.025188      0.008928
     17.55831      2.55833     12.31361        -0.108693     -0.220444     -0.126957
     21.43052      4.52014     13.69925        -0.000441      0.000336     -0.000224
     13.66032      5.51363      8.22435        -0.101750     -0.133481      0.063242
     20.87027      6.06841     16.55509        -0.010567      0.011125     -0.008339
     13.86649      6.50588     16.57757        -0.004159     -0.012360     -0.002981
     13.89290     15.78154     15.53847        -0.004256     -0.000945     -0.001663
      0.79211      6.11554     17.54068        -0.000117     -0.007090     -0.005523
     21.89589      7.60212     12.20778        -0.088093      0.134591      0.073111
     17.46807      9.60991     11.35790        -0.319104      0.160230     -0.032487
     18.70417      6.94199     17.08410        -0.012401     -0.002849      0.010478
     13.83846     10.30524     10.16285         0.098777     -0.187127      0.072636
     16.81947     11.70510     10.30871        -0.029377      0.239664     -0.010471
     19.69248      9.82944     11.28016        -0.107085     -0.102177      0.020824
      0.11154     10.94157      9.61829         0.114744     -0.008903     -0.020568
     19.39295     12.90878     12.57986         0.229323     -0.038904     -0.048237
     20.47029     10.83240     19.42832        -0.000321      0.000023     -0.006035
     12.17365     17.85965     11.33680         0.014189      0.130615     -0.094169
      5.22293     17.76162     10.57067        -0.011393     -0.366646      0.132947
      5.06559      4.31016      8.58199         0.178859     -0.200304      0.083353
      3.68730      5.97650      7.50000         0.011909     -0.101690      0.261650
      7.99605      2.81941      8.89229         0.085617     -0.089824      0.076648
      5.21407      0.82921      8.67630         0.002929      0.019682      0.160236
     11.96273     14.99237     14.69957        -0.000836     -0.003714     -0.000409
      8.69984      4.30756     17.41805         0.006983     -0.007372      0.004226
      5.69639      1.69326     16.09840         0.003599     -0.001789     -0.001695
      7.38348      8.82752     11.89413         0.222502      0.090255     -0.162784
      9.57419      7.95042     10.90633         0.120282     -0.110770     -0.114540
      9.32939     14.37220     10.45190         0.057620      0.000089      0.132367
      5.71709     11.87720      7.91250        -0.118789     -0.019751      0.079032
      7.29827      7.58330      9.92689        -0.166052     -0.091551     -0.002561
      9.49268     10.58787      9.10862        -0.112069      0.038251      0.005840
      3.26254      8.84269      9.46105        -0.024488     -0.204407     -0.113212
     13.88920     12.64839      9.47364        -0.125541     -0.095998      0.175934
     10.98006     15.61013     11.93160         0.312129      0.330255      0.165939
      2.85562      5.84788     16.45214        -0.008517     -0.009073     -0.003639
      1.71370     12.04031     17.36785         0.001616     -0.002493     -0.001714
      5.66135      7.02625     18.35275         0.000084     -0.001486      0.000242
      5.77802     14.76617     18.01487        -0.002911      0.000103      0.001622
     11.43557     10.07212     21.21112         0.003270     -0.001123     -0.000725
     14.20690      9.08949     20.62686         0.004493     -0.001045      0.002784
     13.38374     11.66792     21.21060         0.005232     -0.001804     -0.001408
     13.72786     11.28375     19.50882         0.002273     -0.005546     -0.003492
     12.22702     12.13833     19.93650         0.003703      0.000020     -0.001910
     13.01899      8.35000     22.72224        -0.003878      0.002927      0.008921
     11.74163      7.58286     21.72876         0.006818     -0.000692      0.009022
     13.40877      6.93631     21.69391         0.004602      0.007812      0.012631
      8.63740     11.74900     11.80180        -0.228929      0.108987     -0.223742
      8.11940      9.13372     11.30145        -0.085129      0.616805      0.006157
     20.15128     10.24651     18.72583        -0.003552      0.001458      0.002038
      8.16039     17.39636     14.26263         0.016833     -0.002935     -0.010062
[...]
      5.71814      6.71222     11.31648         0.022527     -0.111586     -0.045184
     15.41693      5.98005     12.10687        -0.170779     -0.464911     -0.728986
     10.76752      5.79151     14.22354         0.001560     -0.001226     -0.003981
      7.89661     10.69049     10.72869        -0.131211     -0.074427      0.002857
     18.80426      8.63421     15.58654        -0.005086     -0.003070      0.003095
      1.62029     16.28844     12.91761        -0.315025      6.427988     -0.524644
      4.96103      2.61769     10.04353        -0.075852     -0.030975      0.120524
      1.83153      8.95162     13.29887         0.057075     -0.141682     -0.277252
     13.05344     15.44546     12.76235       -22.318392    -15.860770      4.753314
     16.81664     10.59709     16.38899        -0.004978     -0.005391     -0.003765
      6.71066      3.80730     12.34244        -0.224426      0.014116     -0.728130
      2.06983     11.33642     15.26074        -0.000771     -0.000769      0.000025
      8.26067      0.38451     15.54206        -0.003005      0.004891      0.002155
     11.34895      8.75409     15.35502         0.003269     -0.001977      0.002903
     11.35500      9.00185     18.70378         0.022299     -0.009585      0.000629
    total drift:                                0.175193      0.363952      0.511416

  FREE ENERGIE OF THE ION-ELECTRON SYSTEM (eV)
  free  energy   TOTEN  =     -1894.61804111 eV

  energy  without entropy=    -1894.61804111  energy(sigma->0) =    -1894.61804111

 d Force = 0.1180520E-02[ 0.160E-04, 0.235E-02]  d Energy = 0.1138313E-02 0.422E-04
 d Force =-0.5966583E+00[-0.602E+00,-0.591E+00]  d Ewald  =-0.5966576E+00-0.662E-06

 stress matrix after NEB project (eV)
    -32.68914      0.03018      0.09153
      0.03018    -33.38909      0.05198
      0.09153      0.05198    -25.37025
  FORCES: max atom, RMS     0.031478    0.007770
  FORCE total and by dimension    0.129324    0.022878
  Stress total and by dimension   53.170339   33.389089
 Quasi-Newton relaxation of ions (Broydens 2nd method)
  g(Force)  = 0.807E-03   g(Stress)= 0.000E+00

 retain information from N=  1 steps
 eigenvalues of (default step * inverse Hessian matrix)
  average eigenvalue of G=   0.2162
 eigenvalue spectrum of G is  0.2162

 reached required accuracy - stopping structural energy minimisation